     Program PWSCF v.7.3.1 starts on 13Apr2025 at 16:45:30

     Waiting for input...
     Reading input from standard input
Warning: card &CELL ignored
Warning: card   CELL_DOFREE = 'ALL' ignored
Warning: card   CELL_DYNAMICS = 'BFGS', ignored
Warning: card / ignored

     Current dimensions of program PWSCF are:
     Max number of different atomic species (ntypx) = 10
     Max number of k-points (npk) =  40000
     Max angular momentum in pseudopotentials (lmaxx) =  4
     file C.pbe-n-kjpaw_psl.1.0.0.UPF: wavefunction(s)  2S 2P renormalized
     file O.pbe-n-kjpaw_psl.0.1.UPF: wavefunction(s)  2P renormalized

     R & G space division:  proc/nbgrp/npool/nimage =      31
     Subspace diagonalization in iterative solution of the eigenvalue problem:
     one sub-group per band group will be used

     Using Slab Decomposition

     bravais-lattice index     =            0
     lattice parameter (alat)  =      30.3068  a.u.
     unit-cell volume          =   21992.9985 (a.u.)^3
     number of atoms/cell      =          132
     number of atomic types    =            5
     number of electrons       =       568.00
     number of Kohn-Sham states=          341
     kinetic-energy cutoff     =      80.0000  Ry
     charge density cutoff     =     640.0000  Ry
     scf convergence threshold =      1.0E-06
     mixing beta               =       0.2000
     number of iterations used =            8  plain     mixing
     energy convergence thresh.=      1.0E-04
     force convergence thresh. =      1.0E-03
     Exchange-correlation= SLA  PW   PBX  PBC
                           (   1   4   3   4   0   0   0)
     nstep                     =          300

     celldm(1)=  30.306823  celldm(2)=   0.000000  celldm(3)=   0.000000
     celldm(4)=   0.000000  celldm(5)=   0.000000  celldm(6)=   0.000000

     crystal axes: (cart. coord. in units of alat)
               a(1) = (   0.999970  -0.004119   0.006591 )
               a(2) = (  -0.381917   0.943796  -0.000088 )
               a(3) = (  -0.303567  -0.467633   0.835329 )

     reciprocal axes: (cart. coord. in units 2 pi/alat)
               b(1) = (  0.997814  0.403831  0.588688 )
               b(2) = (  0.000454  1.059790  0.593456 )
               b(3) = ( -0.007873 -0.003075  1.192552 )

     PseudoPot. # 1 for Ti read from file:
     /home/yongsang/Research/PSID_server_room/qe/[00]QE/qepseudo/SSSP_1.3.0_PBE_efficiency/ti_pbe_v1.4.uspp.F.UPF
     MD5 check sum: 88a00a6731bd790ddea75d31a80cb452
     Pseudo is Ultrasoft + core correction, Zval = 12.0
     Generated by new atomic code, or converted to UPF format
     Using radial grid of  851 points,  6 beta functions with:
                l(1) =   0
                l(2) =   0
                l(3) =   1
                l(4) =   1
                l(5) =   2
                l(6) =   2
     Q(r) pseudized with  6 coefficients,  rinner =    1.000   1.000   1.000
                                                       1.000   1.000

     PseudoPot. # 2 for N  read from file:
     /home/yongsang/Research/PSID_server_room/qe/[00]QE/qepseudo/SSSP_1.3.0_PBE_efficiency/N.pbe-n-radius_5.UPF
     MD5 check sum: 16739722b17309cd8fe442a2ace49922
     Pseudo is Ultrasoft + core correction, Zval =  5.0
     Generated using "atomic" code by A. Dal Corso  v.5.1
     Using radial grid of 1085 points,  4 beta functions with:
                l(1) =   0
                l(2) =   0
                l(3) =   1
                l(4) =   1
     Q(r) pseudized with 0 coefficients

     PseudoPot. # 3 for C  read from file:
     /home/yongsang/Research/PSID_server_room/qe/[00]QE/qepseudo/SSSP_1.3.0_PBE_efficiency/C.pbe-n-kjpaw_psl.1.0.0.UPF
     MD5 check sum: 5d2aebdfa2cae82b50a7e79e9516da0f
     Pseudo is Projector augmented-wave + core cor, Zval =  4.0
     Generated using "atomic" code by A. Dal Corso  v.5.1
     Shape of augmentation charge: PSQ
     Using radial grid of 1073 points,  4 beta functions with:
                l(1) =   0
                l(2) =   0
                l(3) =   1
                l(4) =   1
     Q(r) pseudized with 0 coefficients

     PseudoPot. # 4 for H  read from file:
     /home/yongsang/Research/PSID_server_room/qe/[00]QE/qepseudo/SSSP_1.3.0_PBE_efficiency/H.pbe-rrkjus_psl.1.0.0.UPF
     MD5 check sum: f52b6d4d1c606e5624b1dc7b2218f220
     Pseudo is Ultrasoft, Zval =  1.0
     Generated using "atomic" code by A. Dal Corso  v.5.1
     Using radial grid of  929 points,  2 beta functions with:
                l(1) =   0
                l(2) =   0
     Q(r) pseudized with 0 coefficients

     PseudoPot. # 5 for O  read from file:
     /home/yongsang/Research/PSID_server_room/qe/[00]QE/qepseudo/SSSP_1.3.0_PBE_efficiency/O.pbe-n-kjpaw_psl.0.1.UPF
     MD5 check sum: 0234752ac141de4415c5fc33072bef88
     Pseudo is Projector augmented-wave + core cor, Zval =  6.0
     Generated using "atomic" code by A. Dal Corso  v.5.0.99 svn rev. 10869
     Shape of augmentation charge: BESSEL
     Using radial grid of 1095 points,  4 beta functions with:
                l(1) =   0
                l(2) =   0
                l(3) =   1
                l(4) =   1
     Q(r) pseudized with 0 coefficients

     atomic species   valence    mass     pseudopotential
     Ti               12.00    47.86700     Ti( 1.00)
     N                 5.00    14.00674     N ( 1.00)
     C                 4.00    12.01070     C ( 1.00)
     H                 1.00     1.00794     H ( 1.00)
     O                 6.00    15.99940     O ( 1.00)

     No symmetry found

                                    s                        frac. trans.

      isym =  1     identity

 cryst.   s( 1) = (     1          0          0      )
                  (     0          1          0      )
                  (     0          0          1      )

 cart.    s( 1) = (  1.0000000  0.0000000 -0.0000000 )
                  ( -0.0000000  1.0000000  0.0000000 )
                  (  0.0000000  0.0000000  1.0000000 )

   Cartesian axes

     site n.     atom                  positions (alat units)
         1        Ti     tau(   1) = (  -0.1859674   0.1428679   0.7206433  )
         2        Ti     tau(   2) = (   0.5071897   0.3350719   0.1197776  )
         3        Ti     tau(   3) = (   0.0990385  -0.0616158   0.6021539  )
         4        Ti     tau(   4) = (   0.2198080   0.5412496   0.2374001  )
         5        Ti     tau(   5) = (   0.1158692   0.5980518   0.1151075  )
         6        Ti     tau(   6) = (   0.1919007  -0.1329815   0.7250710  )
         7        Ti     tau(   7) = (  -0.0947695   0.0639406   0.6014652  )
         8        Ti     tau(   8) = (   0.4018196   0.4017223   0.2351730  )
         9        H      tau(   9) = (   0.2294082   0.1045468   0.4473080  )
        10        H      tau(  10) = (  -0.0001747  -0.2480404   0.4610804  )
        11        H      tau(  11) = (   0.3223125   0.7171067   0.3791185  )
        12        H      tau(  12) = (  -0.1853175   0.3929614   0.7102917  )
        13        H      tau(  13) = (   0.4992199   0.0805099   0.1375539  )
        14        H      tau(  14) = (  -0.4210329   0.0456978   0.6996463  )
        15        H      tau(  15) = (   0.7372510   0.4284627   0.1319447  )
        16        H      tau(  16) = (   0.2027059  -0.3942156   0.7053155  )
        17        H      tau(  17) = (  -0.1277265   0.5116009   0.1319113  )
        18        H      tau(  18) = (   0.3013667   0.2250810   0.3779565  )
        19        H      tau(  19) = (   0.0051999   0.2498799   0.4642636  )
        20        H      tau(  20) = (  -0.2276641  -0.1067050   0.4532022  )
        21        H      tau(  21) = (   0.1741803   0.5113535  -0.0041785  )
        22        H      tau(  22) = (   0.4409118   0.4265076   0.0068687  )
        23        H      tau(  23) = (   0.0291012   0.0438920   0.6978051  )
        24        H      tau(  24) = (   0.2802394   0.4335570   0.1389800  )
        25        H      tau(  25) = (   0.2297731  -0.1457287   0.3854905  )
        26        H      tau(  26) = (   0.0862984   0.6141191   0.4561410  )
        27        H      tau(  27) = (  -0.3737079   0.2588403   0.5698472  )
        28        H      tau(  28) = (   0.6851404   0.2137952   0.2754880  )
        29        H      tau(  29) = (  -0.2197774   0.1555631   0.3762326  )
        30        H      tau(  30) = (  -0.0676195   0.7323427   0.2712187  )
        31        H      tau(  31) = (   0.0051860   0.3883725   0.4109361  )
        32        H      tau(  32) = (   0.0938410   0.4345100   0.3657451  )
        33        H      tau(  33) = (   0.1061202   0.7990162   0.1638885  )
        34        H      tau(  34) = (   0.4926919  -0.0467637   0.2130443  )
        35        H      tau(  35) = (   0.4691259  -0.0216758   0.6296367  )
        36        H      tau(  36) = (   0.3837026  -0.0710007   0.6779539  )
        37        H      tau(  37) = (   0.6234873   0.5606456   0.3990157  )
        38        H      tau(  38) = (   0.5364873   0.5159864   0.3493208  )
        39        H      tau(  39) = (   0.5059028   0.3317706   0.5396635  )
        40        H      tau(  40) = (   0.4763725   0.3500639   0.4354801  )
        41        H      tau(  41) = (   0.4391846  -0.3083157   0.5989346  )
        42        H      tau(  42) = (   0.3568722  -0.2450793   0.6343809  )
        43        C      tau(  43) = (   0.5496401   0.3042342   0.2973472  )
        44        C      tau(  44) = (  -0.2368059   0.1683414   0.5447962  )
        45        C      tau(  45) = (   0.2472878  -0.1593586   0.5480405  )
        46        C      tau(  46) = (   0.0665141   0.6300931   0.2919533  )
        47        C      tau(  47) = (   0.6018436   0.2689442   0.3642395  )
        48        C      tau(  48) = (  -0.2921893   0.2044268   0.4792741  )
        49        C      tau(  49) = (   0.3003398  -0.2000865   0.4848933  )
        50        C      tau(  50) = (   0.0143320   0.6694062   0.3582173  )
        51        C      tau(  51) = (   0.5831580   0.2810318   0.4507775  )
        52        C      tau(  52) = (  -0.2743723   0.1917072   0.3940968  )
        53        C      tau(  53) = (   0.3686335  -0.2533410   0.5069687  )
        54        C      tau(  54) = (  -0.0532002   0.7214373   0.3366160  )
        55        C      tau(  55) = (   0.0335679   0.6544560   0.4413477  )
        56        C      tau(  56) = (   0.2823312  -0.1863088   0.3999139  )
        57        C      tau(  57) = (   0.6728406   0.2221097   0.3417725  )
        58        C      tau(  58) = (  -0.3616379   0.2501163   0.5034768  )
        59        C      tau(  59) = (   0.1954416   0.3061387   0.3834166  )
        60        C      tau(  60) = (   0.1129330   0.1713896   0.4590804  )
[...]
       118        O      tau( 118) = (   0.1044280   0.7211243   0.0733543  )
       119        O      tau( 119) = (   0.3147181  -0.1084643   0.7667072  )
       120        O      tau( 120) = (  -0.0007768   0.5719196   0.0714544  )
       121        O      tau( 121) = (   0.3112449   0.5873631   0.3079563  )
       122        O      tau( 122) = (   0.0086752  -0.1119165   0.5268601  )
       123        O      tau( 123) = (   0.2033478   0.4407822   0.3220576  )
[...]
     atom   14 type  4   force =     0.00000393   -0.00000217   -0.00000377
     atom   15 type  4   force =    -0.00000549   -0.00000390   -0.00000173
     atom   16 type  4   force =    -0.00000010    0.00000525   -0.00000413
     atom   17 type  4   force =     0.00000686    0.00000483    0.00000628
     atom   18 type  4   force =     0.00000188    0.00000368   -0.00000229
     atom   19 type  4   force =    -0.00000359   -0.00000069    0.00000456
     atom   20 type  4   force =    -0.00000151    0.00001317    0.00000777
     atom   21 type  4   force =    -0.00000808    0.00001689   -0.00001567
     atom   22 type  4   force =     0.00000803   -0.00000767   -0.00000531
     atom   23 type  4   force =    -0.00001778   -0.00000052   -0.00001366
     atom   24 type  4   force =    -0.00000121    0.00000277    0.00000877
     atom   25 type  4   force =     0.00000016   -0.00000013    0.00000810
     atom   26 type  4   force =    -0.00000561    0.00000594   -0.00000277
     atom   27 type  4   force =     0.00000391   -0.00000256    0.00000114
     atom   28 type  4   force =    -0.00000235    0.00000152    0.00000007
     atom   29 type  4   force =     0.00000985   -0.00000609    0.00000416
     atom   30 type  4   force =     0.00000114   -0.00000070   -0.00000779
     atom   31 type  4   force =     0.00000656   -0.00001009    0.00000210
     atom   32 type  4   force =     0.00000285   -0.00001796    0.00000568
     atom   33 type  4   force =     0.00000049    0.00001366   -0.00000819
     atom   34 type  4   force =     0.00000182    0.00000544   -0.00000728
     atom   35 type  4   force =     0.00000352    0.00000228    0.00001178
     atom   36 type  4   force =     0.00001302    0.00001015    0.00001111
     atom   37 type  4   force =    -0.00001414    0.00000797    0.00000056
     atom   38 type  4   force =    -0.00000538    0.00002022    0.00000922
     atom   39 type  4   force =     0.00000717   -0.00000383   -0.00000580
     atom   40 type  4   force =     0.00001602   -0.00000863    0.00000071
     atom   41 type  4   force =    -0.00000018    0.00000168   -0.00000867
     atom   42 type  4   force =     0.00000015    0.00000063   -0.00001693
     atom   43 type  3   force =    -0.00002302    0.00002051   -0.00000426
     atom   44 type  3   force =    -0.00001224    0.00000625   -0.00001966
     atom   45 type  3   force =     0.00002987   -0.00002695   -0.00002221
     atom   46 type  3   force =     0.00000641    0.00000155    0.00001090
     atom   47 type  3   force =     0.00000796   -0.00000166    0.00000161
     atom   48 type  3   force =    -0.00003540    0.00002580   -0.00002379
     atom   49 type  3   force =     0.00001326   -0.00001073   -0.00003769
     atom   50 type  3   force =     0.00000455    0.00000239    0.00006208
     atom   51 type  3   force =    -0.00003822    0.00002472    0.00001167
     atom   52 type  3   force =    -0.00007776    0.00005479    0.00007828
     atom   53 type  3   force =    -0.00001917    0.00001561   -0.00000374
     atom   54 type  3   force =     0.00003345   -0.00002267    0.00010793
     atom   55 type  3   force =    -0.00004539    0.00003924   -0.00004309
     atom   56 type  3   force =     0.00007246   -0.00005509    0.00008904
     atom   57 type  3   force =    -0.00001073    0.00000980    0.00006026
     atom   58 type  3   force =     0.00007713   -0.00004860   -0.00007148
     atom   59 type  3   force =    -0.00002174    0.00000558    0.00001517
     atom   60 type  3   force =    -0.00000707    0.00003949   -0.00002470
[...]
     atom  118 type  5   force =    -0.00002105    0.00005694   -0.00012407
     atom  119 type  5   force =     0.00009381    0.00002881    0.00013656
     atom  120 type  5   force =    -0.00006227    0.00002094   -0.00012315
     atom  121 type  5   force =     0.00008901   -0.00009380    0.00000964
     atom  122 type  5   force =    -0.00013615    0.00002937   -0.00007413
     atom  123 type  5   force =     0.00008549   -0.00009426    0.00005637
     atom  124 type  5   force =    -0.00008151    0.00009530   -0.00006181
     atom  125 type  5   force =     0.00006123    0.00000099   -0.00012080
     atom  126 type  5   force =    -0.00004033   -0.00002358    0.00006087
     atom  127 type  5   force =     0.00002230   -0.00006961   -0.00012845
     atom  128 type  5   force =     0.00000432    0.00004007    0.00006485
     atom  129 type  5   force =     0.00000527    0.00008241    0.00013453
     atom  130 type  5   force =    -0.00010965   -0.00001961   -0.00004612
     atom  131 type  5   force =     0.00007012   -0.00009459    0.00001477
     atom  132 type  5   force =    -0.00002665    0.00010082   -0.00003335

     DFT-D3 dispersion contribution to forces:
     atom    1 type  1   force =     0.00032155    0.00015556   -0.00134312
     atom    2 type  1   force =    -0.00010152    0.00009658    0.00154993
     atom    3 type  1   force =     0.00126908   -0.00094506    0.00028468
     atom    4 type  1   force =    -0.00114371    0.00098257    0.00001075
     atom    5 type  1   force =     0.00028024    0.00007130    0.00158272
     atom    6 type  1   force =     0.00017760   -0.00000493   -0.00159521
     atom    7 type  1   force =    -0.00125322    0.00061081    0.00032402
     atom    8 type  1   force =     0.00146669   -0.00067575    0.00015692
     atom    9 type  4   force =    -0.00007077   -0.00029601    0.00018799
     atom   10 type  4   force =     0.00031531    0.00027514    0.00024352
     atom   11 type  4   force =    -0.00028836   -0.00008163   -0.00013392
     atom   12 type  4   force =    -0.00002882   -0.00020620   -0.00020229
     atom   13 type  4   force =     0.00003041    0.00040523    0.00012659
     atom   14 type  4   force =     0.00045417    0.00021548   -0.00012682
     atom   15 type  4   force =    -0.00024499   -0.00007366    0.00021333
     atom   16 type  4   force =     0.00010592    0.00042858   -0.00011374
     atom   17 type  4   force =     0.00032732    0.00014296    0.00010855
     atom   18 type  4   force =     0.00038592    0.00012003   -0.00012845
     atom   19 type  4   force =    -0.00035064   -0.00029200    0.00027199
     atom   20 type  4   force =     0.00009844    0.00028154    0.00016315
     atom   21 type  4   force =     0.00038997   -0.00027296   -0.00007393
     atom   22 type  4   force =    -0.00039758    0.00028137    0.00004181
     atom   23 type  4   force =    -0.00003993    0.00004115    0.00045883
     atom   24 type  4   force =     0.00003731   -0.00002026   -0.00045995
     atom   25 type  4   force =    -0.00015218    0.00010174    0.00007643
     atom   26 type  4   force =     0.00019532   -0.00030629   -0.00028761
     atom   27 type  4   force =     0.00018615   -0.00015870    0.00026139
     atom   28 type  4   force =    -0.00006805    0.00005060   -0.00017840
     atom   29 type  4   force =     0.00019254   -0.00010558    0.00025377
     atom   30 type  4   force =     0.00032724   -0.00007149   -0.00027582
     atom   31 type  4   force =     0.00021205    0.00038476   -0.00016241
     atom   32 type  4   force =    -0.00002208    0.00079154   -0.00039448
     atom   33 type  4   force =    -0.00006499   -0.00077540    0.00044772
     atom   34 type  4   force =    -0.00008136   -0.00044620    0.00002872
     atom   35 type  4   force =    -0.00039331   -0.00030264   -0.00003209
     atom   36 type  4   force =    -0.00071042   -0.00038627   -0.00045664
     atom   37 type  4   force =    -0.00021687   -0.00035034   -0.00016003
     atom   38 type  4   force =    -0.00006061   -0.00087662   -0.00030562
     atom   39 type  4   force =    -0.00014383    0.00012327   -0.00029383
     atom   40 type  4   force =    -0.00048076    0.00042934   -0.00040743
     atom   41 type  4   force =    -0.00023148    0.00018680    0.00018803
     atom   42 type  4   force =    -0.00029309    0.00027729    0.00063233
     atom   43 type  3   force =    -0.00007105    0.00021168   -0.00010267
     atom   44 type  3   force =     0.00007685   -0.00004334    0.00002723
     atom   45 type  3   force =     0.00006203    0.00018920    0.00014198
     atom   46 type  3   force =    -0.00002578   -0.00005938   -0.00008887
     atom   47 type  3   force =    -0.00017112    0.00022855   -0.00040722
     atom   48 type  3   force =     0.00014931   -0.00009766    0.00034284
     atom   49 type  3   force =    -0.00027505    0.00030412    0.00029137
     atom   50 type  3   force =     0.00038120   -0.00023298   -0.00026760
     atom   51 type  3   force =    -0.00016129    0.00022120   -0.00009299
     atom   52 type  3   force =     0.00021497   -0.00010595   -0.00006178
     atom   53 type  3   force =    -0.00000509    0.00010197    0.00026390
     atom   54 type  3   force =     0.00008578    0.00012906   -0.00036341
     atom   55 type  3   force =     0.00023813   -0.00031003   -0.00014490
     atom   56 type  3   force =    -0.00013451    0.00012432   -0.00001283
     atom   57 type  3   force =    -0.00000050    0.00001720   -0.00018599
     atom   58 type  3   force =     0.00007773   -0.00007021    0.00024344
     atom   59 type  3   force =     0.00037714    0.00015497   -0.00024845
     atom   60 type  3   force =    -0.00026526   -0.00014668    0.00026378
[...]
     atom  118 type  5   force =    -0.00022920   -0.00072209    0.00009208
     atom  119 type  5   force =    -0.00065795   -0.00045425   -0.00016552
     atom  120 type  5   force =     0.00069470    0.00029879    0.00023600
     atom  121 type  5   force =    -0.00067370   -0.00052610   -0.00023872
     atom  122 type  5   force =     0.00067822    0.00036572    0.00016444
     atom  123 type  5   force =     0.00034033    0.00057417   -0.00042640
     atom  124 type  5   force =    -0.00011622   -0.00062316    0.00040008
     atom  125 type  5   force =    -0.00076599   -0.00040346    0.00016486
     atom  126 type  5   force =     0.00057721    0.00034946   -0.00030895
     atom  127 type  5   force =     0.00021116    0.00073531    0.00029449
     atom  128 type  5   force =    -0.00018171   -0.00083887   -0.00019629
     atom  129 type  5   force =     0.00020090   -0.00001668    0.00006386
     atom  130 type  5   force =    -0.00012003   -0.00007520    0.00003673
     atom  131 type  5   force =     0.00001301   -0.00006417   -0.00004441
     atom  132 type  5   force =     0.00005246    0.00008135    0.00004372

     Total force =     0.005547     Total SCF correction =     0.001047

     DFT-D3 dispersion Force =     0.007364
     SCF correction compared to forces is large: reduce conv_thr to get better values

     BFGS Geometry Optimization
     Energy error            =      0.0E+00 Ry
     Gradient error          =      9.4E-04 Ry/Bohr

     bfgs converged in   1 scf cycles and   0 bfgs steps
     (criteria: energy <  1.0E-04 Ry, force <  1.0E-03 Ry/Bohr)

     End of BFGS Geometry Optimization

     Final energy             =   -3503.7688659970 Ry
Begin final coordinates

ATOMIC_POSITIONS (angstrom)
Ti              -2.9824857469        2.2912700286       11.5574473471
Ti               8.1341454179        5.3737759392        1.9209555889
Ti               1.5883482088       -0.9881751188        9.6571520874
Ti               3.5252107350        8.6803884005        3.8073461573
Ti               1.8582738115        9.5913637033        1.8460574503
Ti               3.0776427577       -2.1327146915       11.6284568459
Ti              -1.5198826983        1.0254583011        9.6461068485
Ti               6.4442537157        6.4426933019        3.7716288646
H                3.6791746869        1.6766882853        7.1737822881
H               -0.0028025564       -3.9779923070        7.3946601393
H                5.1691444758       11.5007274510        6.0801807270
H               -2.9720629513        6.3021890780       11.3914314161
H                8.0063282793        1.2911915982        2.2060447438
H               -6.7523909850        0.7328862477       11.2207035775
H               11.8237952241        6.8715478777        2.1160864294
H                3.2509331272       -6.3223035414       11.3116236356
H               -2.0484374364        8.2048923129        2.1155510729
H                4.8332229057        3.6097767929        6.0615459755
H                0.0833941422        4.0074936392        7.4457107830
H               -3.6512032865       -1.7113001697        7.2683125903
H                2.7934484662        8.2009232092       -0.0670135050
H                7.0712024607        6.8401924663        0.1101575444
H                0.4667156345        0.7039255938       11.1911745243
H                4.4943903095        6.9532483081        2.2289169766
H                3.6850281083       -2.3371503302        6.1823739554
H                1.3840269210        9.8490456679        7.3154438041
H               -5.9934079279        4.1511972631        9.1390271922
H               10.9880632319        3.4287794944        4.4181890530
H               -3.5247201587        2.4948714044        6.0338981977
H               -1.0844593373       11.7450786725        4.3497187656
H                0.0831706690        6.2285938552        6.5904615315
H                1.5049927139        6.9685326720        5.8657025981
H                1.7019215889       12.8143668067        2.6283913504
H                7.9016345227       -0.7499814075        3.4167363777
H                7.5236914370       -0.3476299529       10.0979119587
H                6.1536993771       -1.1386864033       10.8728075283
H                9.9992896846        8.9914542306        6.3992866640
H                8.6040114123        8.2752248156        5.6022948997
H                8.1135067374        5.3208310697        8.6549502818
H                7.6399096699        5.6142123821        6.9840908149
H                7.0435023913       -4.9446690528        9.6055215230
H                5.7234017730       -3.9305041745       10.1739986239
C                8.8149522298        4.8792105631        4.7687587565
C               -3.7978166308        2.6998050932        8.7372668765
C                3.9659229067       -2.5557427665        8.7892976435
C                1.0667322503       10.1052308960        4.6822539276
C                9.6521746611        4.3132412571        5.8415568339
C               -4.6860385991        3.2785315528        7.6864444329
C                4.8167535745       -3.2089234959        7.7765630063
C                0.2298515139       10.7357222559        5.7449739896
C                9.3525020850        4.5070978458        7.2294251161
C               -4.4002946662        3.0745382731        6.3203991245
C                5.9120268456       -4.0630024030        8.1306017724
C               -0.8532080961       11.5701799570        5.3985392236
C                0.5383514393       10.4959556588        7.0781925259
C                4.5279379658       -2.9879613780        6.4136915338
C               10.7908028023        3.5621248205        5.4812382379
C               -5.7998336138        4.0112846256        8.0745990872
C                3.1344296154        4.9097547387        6.1491129207
C                1.8111840266        2.7486914531        7.3625841015
[...]
O                1.6747833524       11.5651606208        1.1764321798
O                5.0473485605       -1.7395153997       12.2962050552
O               -0.0124578475        9.1722633831        1.1459627101
O                4.9916459725        9.4199407383        4.9389050832
O                0.1391293357       -1.7948809443        8.4496141260
O                3.2612268391        7.0691244584        5.1650571103
O                1.8102403469        0.6011808301        8.3589287619
O                9.9651344723        5.7805645496        1.1440765388
O               -4.9160403951        1.9120673870       12.3032149586
O                8.2108259369        3.4527288781        1.1734208242
O               -3.0277693292        4.1461748360       12.3457720729
O                4.9400965941        7.4809965886        2.9139910687
O                0.0885782729        0.1121335996       10.5177076021
O                7.3571001019        5.9113071829        0.0855316886
O                2.5487129992        9.1399892841       -0.0011319309
End final coordinates

     Writing all to output data dir ./tmp/MIL125_NH2_opt.save/ :
     XML data file, charge density, pseudopotentials, collected wavefunctions

     General routines

     Parallel routines

     PAW routines

   This run was terminated on:  17: 1:16  13Apr2025

   JOB DONE.
Note: The following floating-point exceptions are signalling: IEEE_DENORMAL
Note: The following floating-point exceptions are signalling: IEEE_DENORMAL