     Program PWSCF v.7.3.1 starts on 13Apr2025 at 17:34:51

     Waiting for input...
     Reading input from standard input

     Current dimensions of program PWSCF are:
     Max number of different atomic species (ntypx) = 10
     Max number of k-points (npk) =  40000
     Max angular momentum in pseudopotentials (lmaxx) =  4
     file C.pbe-n-kjpaw_psl.1.0.0.UPF: wavefunction(s)  2S 2P renormalized
     file O.pbe-n-kjpaw_psl.0.1.UPF: wavefunction(s)  2P renormalized

     R & G space division:  proc/nbgrp/npool/nimage =      31
     Subspace diagonalization in iterative solution of the eigenvalue problem:
     one sub-group per band group will be used

     Using Slab Decomposition

     bravais-lattice index     =            0
     lattice parameter (alat)  =      30.3068  a.u.
     unit-cell volume          =   21992.9985 (a.u.)^3
     number of atoms/cell      =          132
     number of atomic types    =            5
     number of electrons       =       568.00
     number of Kohn-Sham states=          341
     kinetic-energy cutoff     =      80.0000  Ry
     charge density cutoff     =     640.0000  Ry
     scf convergence threshold =      1.0E-08
     mixing beta               =       0.2000
     number of iterations used =            8  plain     mixing
     Exchange-correlation= SLA  PW   PBX  PBC
                           (   1   4   3   4   0   0   0)

     celldm(1)=  30.306823  celldm(2)=   0.000000  celldm(3)=   0.000000
     celldm(4)=   0.000000  celldm(5)=   0.000000  celldm(6)=   0.000000

     crystal axes: (cart. coord. in units of alat)
               a(1) = (   0.999970  -0.004119   0.006591 )
               a(2) = (  -0.381917   0.943796  -0.000088 )
               a(3) = (  -0.303567  -0.467633   0.835329 )

     reciprocal axes: (cart. coord. in units 2 pi/alat)
               b(1) = (  0.997814  0.403831  0.588688 )
               b(2) = (  0.000454  1.059790  0.593456 )
               b(3) = ( -0.007873 -0.003075  1.192552 )

     PseudoPot. # 1 for Ti read from file:
     /home/yongsang/Research/PSID_server_room/qe/[00]QE/qepseudo/SSSP_1.3.0_PBE_efficiency/ti_pbe_v1.4.uspp.F.UPF
     MD5 check sum: 88a00a6731bd790ddea75d31a80cb452
     Pseudo is Ultrasoft + core correction, Zval = 12.0
     Generated by new atomic code, or converted to UPF format
     Using radial grid of  851 points,  6 beta functions with:
                l(1) =   0
                l(2) =   0
                l(3) =   1
                l(4) =   1
                l(5) =   2
                l(6) =   2
     Q(r) pseudized with  6 coefficients,  rinner =    1.000   1.000   1.000
                                                       1.000   1.000

     PseudoPot. # 2 for N  read from file:
     /home/yongsang/Research/PSID_server_room/qe/[00]QE/qepseudo/SSSP_1.3.0_PBE_efficiency/N.pbe-n-radius_5.UPF
     MD5 check sum: 16739722b17309cd8fe442a2ace49922
     Pseudo is Ultrasoft + core correction, Zval =  5.0
     Generated using "atomic" code by A. Dal Corso  v.5.1
     Using radial grid of 1085 points,  4 beta functions with:
                l(1) =   0
                l(2) =   0
                l(3) =   1
                l(4) =   1
     Q(r) pseudized with 0 coefficients

     PseudoPot. # 3 for C  read from file:
     /home/yongsang/Research/PSID_server_room/qe/[00]QE/qepseudo/SSSP_1.3.0_PBE_efficiency/C.pbe-n-kjpaw_psl.1.0.0.UPF
     MD5 check sum: 5d2aebdfa2cae82b50a7e79e9516da0f
     Pseudo is Projector augmented-wave + core cor, Zval =  4.0
     Generated using "atomic" code by A. Dal Corso  v.5.1
     Shape of augmentation charge: PSQ
     Using radial grid of 1073 points,  4 beta functions with:
                l(1) =   0
                l(2) =   0
                l(3) =   1
                l(4) =   1
     Q(r) pseudized with 0 coefficients

     PseudoPot. # 4 for H  read from file:
     /home/yongsang/Research/PSID_server_room/qe/[00]QE/qepseudo/SSSP_1.3.0_PBE_efficiency/H.pbe-rrkjus_psl.1.0.0.UPF
     MD5 check sum: f52b6d4d1c606e5624b1dc7b2218f220
     Pseudo is Ultrasoft, Zval =  1.0
     Generated using "atomic" code by A. Dal Corso  v.5.1
     Using radial grid of  929 points,  2 beta functions with:
                l(1) =   0
                l(2) =   0
     Q(r) pseudized with 0 coefficients

     PseudoPot. # 5 for O  read from file:
     /home/yongsang/Research/PSID_server_room/qe/[00]QE/qepseudo/SSSP_1.3.0_PBE_efficiency/O.pbe-n-kjpaw_psl.0.1.UPF
     MD5 check sum: 0234752ac141de4415c5fc33072bef88
     Pseudo is Projector augmented-wave + core cor, Zval =  6.0
     Generated using "atomic" code by A. Dal Corso  v.5.0.99 svn rev. 10869
     Shape of augmentation charge: BESSEL
     Using radial grid of 1095 points,  4 beta functions with:
                l(1) =   0
                l(2) =   0
                l(3) =   1
                l(4) =   1
     Q(r) pseudized with 0 coefficients

     atomic species   valence    mass     pseudopotential
     Ti               12.00    47.86700     Ti( 1.00)
     N                 5.00    14.00674     N ( 1.00)
     C                 4.00    12.01070     C ( 1.00)
     H                 1.00     1.00794     H ( 1.00)
     O                 6.00    15.99940     O ( 1.00)

     No symmetry found

                                    s                        frac. trans.

      isym =  1     identity

 cryst.   s( 1) = (     1          0          0      )
                  (     0          1          0      )
                  (     0          0          1      )

 cart.    s( 1) = (  1.0000000  0.0000000 -0.0000000 )
                  ( -0.0000000  1.0000000  0.0000000 )
                  (  0.0000000  0.0000000  1.0000000 )

   Cartesian axes

     site n.     atom                  positions (alat units)
         1        Ti     tau(   1) = (  -0.1859674   0.1428679   0.7206433  )
         2        Ti     tau(   2) = (   0.5071897   0.3350719   0.1197776  )
         3        Ti     tau(   3) = (   0.0990385  -0.0616158   0.6021539  )
         4        Ti     tau(   4) = (   0.2198080   0.5412496   0.2374001  )
         5        Ti     tau(   5) = (   0.1158692   0.5980518   0.1151075  )
         6        Ti     tau(   6) = (   0.1919007  -0.1329815   0.7250710  )
         7        Ti     tau(   7) = (  -0.0947695   0.0639406   0.6014652  )
         8        Ti     tau(   8) = (   0.4018196   0.4017223   0.2351730  )
         9        H      tau(   9) = (   0.2294082   0.1045468   0.4473080  )
        10        H      tau(  10) = (  -0.0001747  -0.2480404   0.4610804  )
        11        H      tau(  11) = (   0.3223125   0.7171067   0.3791185  )
        12        H      tau(  12) = (  -0.1853175   0.3929614   0.7102917  )
        13        H      tau(  13) = (   0.4992199   0.0805099   0.1375539  )
        14        H      tau(  14) = (  -0.4210329   0.0456978   0.6996463  )
        15        H      tau(  15) = (   0.7372510   0.4284627   0.1319447  )
        16        H      tau(  16) = (   0.2027059  -0.3942156   0.7053155  )
        17        H      tau(  17) = (  -0.1277265   0.5116009   0.1319113  )
        18        H      tau(  18) = (   0.3013667   0.2250810   0.3779565  )
        19        H      tau(  19) = (   0.0051999   0.2498799   0.4642636  )
        20        H      tau(  20) = (  -0.2276641  -0.1067050   0.4532022  )
        21        H      tau(  21) = (   0.1741803   0.5113535  -0.0041785  )
        22        H      tau(  22) = (   0.4409118   0.4265076   0.0068687  )
        23        H      tau(  23) = (   0.0291012   0.0438920   0.6978051  )
        24        H      tau(  24) = (   0.2802394   0.4335570   0.1389800  )
        25        H      tau(  25) = (   0.2297731  -0.1457287   0.3854905  )
        26        H      tau(  26) = (   0.0862984   0.6141191   0.4561410  )
        27        H      tau(  27) = (  -0.3737079   0.2588403   0.5698472  )
        28        H      tau(  28) = (   0.6851404   0.2137952   0.2754880  )
        29        H      tau(  29) = (  -0.2197774   0.1555631   0.3762326  )
        30        H      tau(  30) = (  -0.0676195   0.7323427   0.2712187  )
        31        H      tau(  31) = (   0.0051860   0.3883725   0.4109361  )
        32        H      tau(  32) = (   0.0938410   0.4345100   0.3657451  )
        33        H      tau(  33) = (   0.1061202   0.7990162   0.1638885  )
        34        H      tau(  34) = (   0.4926919  -0.0467637   0.2130443  )
        35        H      tau(  35) = (   0.4691259  -0.0216758   0.6296367  )
        36        H      tau(  36) = (   0.3837026  -0.0710007   0.6779539  )
        37        H      tau(  37) = (   0.6234873   0.5606456   0.3990157  )
        38        H      tau(  38) = (   0.5364873   0.5159864   0.3493208  )
        39        H      tau(  39) = (   0.5059028   0.3317706   0.5396635  )
        40        H      tau(  40) = (   0.4763725   0.3500639   0.4354801  )
        41        H      tau(  41) = (   0.4391846  -0.3083157   0.5989346  )
        42        H      tau(  42) = (   0.3568722  -0.2450793   0.6343809  )
        43        C      tau(  43) = (   0.5496401   0.3042342   0.2973472  )
        44        C      tau(  44) = (  -0.2368059   0.1683414   0.5447962  )
        45        C      tau(  45) = (   0.2472878  -0.1593586   0.5480405  )
        46        C      tau(  46) = (   0.0665141   0.6300931   0.2919533  )
        47        C      tau(  47) = (   0.6018436   0.2689442   0.3642395  )
        48        C      tau(  48) = (  -0.2921893   0.2044268   0.4792741  )
        49        C      tau(  49) = (   0.3003398  -0.2000865   0.4848933  )
        50        C      tau(  50) = (   0.0143320   0.6694062   0.3582173  )
        51        C      tau(  51) = (   0.5831580   0.2810318   0.4507775  )
        52        C      tau(  52) = (  -0.2743723   0.1917072   0.3940968  )
        53        C      tau(  53) = (   0.3686335  -0.2533410   0.5069687  )
        54        C      tau(  54) = (  -0.0532002   0.7214373   0.3366160  )
        55        C      tau(  55) = (   0.0335679   0.6544560   0.4413477  )
        56        C      tau(  56) = (   0.2823312  -0.1863088   0.3999139  )
        57        C      tau(  57) = (   0.6728406   0.2221097   0.3417725  )
        58        C      tau(  58) = (  -0.3616379   0.2501163   0.5034768  )
        59        C      tau(  59) = (   0.1954416   0.3061387   0.3834166  )
        60        C      tau(  60) = (   0.1129330   0.1713896   0.4590804  )
[...]
       118        O      tau( 118) = (   0.1044280   0.7211243   0.0733543  )
       119        O      tau( 119) = (   0.3147181  -0.1084643   0.7667072  )
       120        O      tau( 120) = (  -0.0007768   0.5719196   0.0714544  )
       121        O      tau( 121) = (   0.3112449   0.5873631   0.3079563  )
       122        O      tau( 122) = (   0.0086752  -0.1119165   0.5268601  )
       123        O      tau( 123) = (   0.2033478   0.4407822   0.3220576  )
       124        O      tau( 124) = (   0.1128742   0.0374855   0.5212056  )
       125        O      tau( 125) = (   0.6213576   0.3604365   0.0713368  )
       126        O      tau( 126) = (  -0.3065306   0.1192234   0.7671443  )
[...]
         C          3.163            2.750     50.42   1458.34
         C          3.155            2.750     50.49   1460.36
         C          3.162            2.750     50.43   1458.54
         C          3.155            2.750     50.49   1460.34
         C          3.212            2.750     49.92   1443.68
         C          3.172            2.750     50.34   1455.89
         C          3.173            2.750     50.34   1455.83
         C          3.211            2.750     49.93   1443.97
         C          3.210            2.750     49.94   1444.32
         C          3.188            2.750     50.18   1451.31
[...]
         O          2.022            2.345     20.81    419.88
         O          2.010            2.345     20.81    420.01
         O          2.032            2.345     20.80    419.78
         O          2.046            2.345     20.80    419.66
         O          2.031            2.345     20.80    419.79
         O          2.006            2.345     20.82    420.06
         O          2.023            2.345     20.81    419.87
         O          2.036            2.345     20.80    419.75
         O          2.005            2.345     20.82    420.06
         O          2.026            2.345     20.80    419.84
         O          2.041            2.345     20.80    419.70
         O          2.945            2.345     20.74    418.58
         O          2.941            2.345     20.74    418.58
         O          2.943            2.345     20.74    418.58
         O          2.944            2.345     20.74    418.58

         Molecular C6 ( Ry / a.u.^6 ) =    660547.30

   Crystallographic axes

     site n.     atom                  positions (cryst. coord.)
         1        Ti     tau(   1) = (  0.2963677  0.5789956  0.8604291  )
         2        Ti     tau(   2) = (  0.7119048  0.4264191  0.1378178  )
         3        Ti     tau(   3) = (  0.4284205  0.2920969  0.7175093  )
         4        Ti     tau(   4) = (  0.5776552  0.7145975  0.2797172  )
         5        Ti     tau(   5) = (  0.4248900  0.7021734  0.1345206  )
         6        Ti     tau(   6) = (  0.5646198  0.2894524  0.8635826  )
         7        Ti     tau(   7) = (  0.2853342  0.4246636  0.7178278  )
         8        Ti     tau(   8) = (  0.7016124  0.5654887  0.2760573  )
         9        H      tau(   9) = (  0.5344507  0.3763595  0.5313103  )
        10        H      tau(  10) = (  0.1710919  0.0107600  0.5506262  )
        11        H      tau(  11) = (  0.8343800  0.9851193  0.4473760  )
        12        H      tau(  12) = (  0.3919177  0.8378993  0.8473102  )
        13        H      tau(  13) = (  0.6116171  0.1671825  0.1598623  )
        14        H      tau(  14) = (  0.0102152  0.4634480  0.8375384  )
        15        H      tau(  15) = (  0.9863398  0.5327189  0.1502293  )
        16        H      tau(  16) = (  0.4582772  0.0008798  0.8407413  )
        17        H      tau(  17) = (  0.1568074  0.6204153  0.1567435  )
        18        H      tau(  18) = (  0.6141009  0.4629761  0.4476680  )
        19        H      tau(  19) = (  0.3794041  0.5403426  0.5528490  )
        20        H      tau(  20) = ( -0.0034623  0.1557672  0.5425874  )
        21        H      tau(  21) = (  0.3778399  0.5395268 -0.0079266  )
        22        H      tau(  22) = (  0.6162282  0.4562852  0.0034087  )
        23        H      tau(  23) = (  0.4575520  0.4606461  0.8318045  )
        24        H      tau(  24) = (  0.5365262  0.5420853  0.1622015  )
        25        H      tau(  25) = (  0.3973548  0.0744341  0.4583565  )
        26        H      tau(  26) = (  0.6026346  0.9215763  0.5414041  )
        27        H      tau(  27) = (  0.0670990  0.6123258  0.6817184  )
        28        H      tau(  28) = (  0.9321561  0.3903794  0.3224824  )
        29        H      tau(  29) = (  0.0650078  0.3880419  0.4499287  )
        30        H      tau(  30) = (  0.3879340  0.9370554  0.3217229  )
        31        H      tau(  31) = (  0.4039245  0.6554682  0.4888275  )
        32        H      tau(  32) = (  0.4844141  0.6775857  0.4340951  )
        33        H      tau(  33) = (  0.5250346  0.9440985  0.1921533  )
        34        H      tau(  34) = (  0.5981467  0.0770965  0.2503313  )
        35        H      tau(  35) = (  0.8300065  0.3509029  0.7472476  )
        36        H      tau(  36) = (  0.7532948  0.3272642  0.8056925  )
        37        H      tau(  37) = (  1.0834258  0.8312482  0.4692145  )
        38        H      tau(  38) = (  0.9493264  0.7543876  0.4107729  )
        39        H      tau(  39) = (  0.9564693  0.6721036  0.6385736  )
        40        H      tau(  40) = (  0.8730595  0.6296490  0.5145058  )
        41        H      tau(  41) = (  0.6663028  0.0288908  0.7117508  )
        42        H      tau(  42) = (  0.6305739  0.1169065  0.7544760  )
        43        C      tau(  43) = (  0.8463423  0.4991366  0.3493393  )
        44        C      tau(  44) = (  0.1524083  0.5016115  0.6510442  )
        45        C      tau(  45) = (  0.5050182  0.1564635  0.6521097  )
        46        C      tau(  46) = (  0.4926890  0.8410582  0.3457084  )
        47        C      tau(  47) = (  0.9235591  0.5014580  0.4288094  )
        48        C      tau(  48) = (  0.0731462  0.5009449  0.5732308  )
        49        C      tau(  49) = (  0.5043330  0.0758495  0.5765109  )
        50        C      tau(  50) = (  0.4955056  0.9220229  0.4250215  )
        51        C      tau(  51) = (  0.9607397  0.5656163  0.5321203  )
        52        C      tau(  52) = (  0.0356449  0.4369239  0.4715514  )
        53        C      tau(  53) = (  0.5639672  0.0325427  0.6024631  )
        54        C      tau(  54) = (  0.4364163  0.9643148  0.3996325  )
        55        C      tau(  55) = (  0.5576000  0.9555218  0.5240533  )
        56        C      tau(  56) = (  0.4419013  0.0400112  0.4752681  )
        57        C      tau(  57) = (  0.9622617  0.4385223  0.4016014  )
        58        C      tau(  58) = (  0.0365480  0.5636978  0.6025000  )
        59        C      tau(  59) = (  0.5443553  0.5520725  0.4547641  )
        60        C      tau(  60) = (  0.4521536  0.4541323  0.5460609  )
[...]
       118        O      tau( 118) = (  0.4385946  0.8078205  0.0844394  )
       119        O      tau( 119) = (  0.7215802  0.3402005  0.9121937  )
       120        O      tau( 120) = (  0.2722479  0.6485195  0.0834607  )
       121        O      tau( 121) = (  0.7290498  0.8053816  0.3629975  )
       122        O      tau( 122) = (  0.2736171  0.1940642  0.6285837  )
       123        O      tau( 123) = (  0.5704960  0.6583561  0.3811142  )
       124        O      tau( 124) = (  0.4345927  0.3490906  0.6205607  )
       125        O      tau( 125) = (  0.8075495  0.4246046  0.0790728  )
       126        O      tau( 126) = (  0.1938943  0.5814789  0.9169058  )
       127        O      tau( 127) = (  0.6408640  0.2718144  0.0825623  )
       128        O      tau( 128) = (  0.3691937  0.7307399  0.9187150  )
       129        O      tau( 129) = (  0.6026921  0.6023226  0.2128232  )
       130        O      tau( 130) = (  0.3944034  0.3966081  0.7820250  )
       131        O      tau( 131) = (  0.6097225  0.3940001  0.0016153  )
       132        O      tau( 132) = (  0.3886773  0.6040125 -0.0030876  )

     number of k points=     1  Gaussian smearing, width (Ry)=  0.0500
                       cart. coord. in units 2pi/alat
        k(    1) = (   0.0000000   0.0000000   0.0000000), wk =   2.0000000

                       cryst. coord.
        k(    1) = (   0.0000000   0.0000000   0.0000000), wk =   2.0000000

     Initial potential from superposition of free atoms

     starting charge     559.9972, renormalised to     568.0000

     negative rho (up, down):  1.104E-02 0.000E+00
[ga00:2909371] Set MCA parameter "orte_base_help_aggregate" to 0 to see all help / error messages
     Starting wfcs are  474 randomized atomic wfcs
     Checking if some PAW data can be deallocated...

     Self-consistent Calculation

     iteration #  1     ecut=    80.00 Ry     beta= 0.20
     Davidson diagonalization with overlap

     ethr =  1.00E-02,  avg # of iterations =  3.0

     negative rho (up, down):  3.626E-03 0.000E+00

     total energy              =   -3455.17882944 Ry
     estimated scf accuracy    <     177.13655319 Ry

[...]

     total energy              =   -3503.76886601 Ry
     estimated scf accuracy    <       0.00000003 Ry

     iteration # 22     ecut=    80.00 Ry     beta= 0.20
     Davidson diagonalization with overlap

     ethr =  5.86E-12,  avg # of iterations =  4.0

     negative rho (up, down):  1.046E-02 0.000E+00

     End of self-consistent calculation

          k = 0.0000 0.0000 0.0000 (265753 PWs)   bands (ev):

   -59.3318 -59.3293 -59.3154 -59.3039 -59.2762 -59.2652 -59.2486 -59.2374
   -35.8772 -35.8759 -35.8571 -35.8557 -35.6274 -35.6214 -35.6102 -35.6067
   -35.6042 -35.5942 -35.5938 -35.5780 -35.5627 -35.5498 -35.5302 -35.5269
   -35.5101 -35.4962 -35.4733 -35.4698 -35.4032 -35.3930 -35.3741 -35.3708
   -24.1217 -24.0601 -24.0444 -24.0387 -23.8928 -23.8535 -23.8419 -23.8286
   -23.7458 -23.7245 -23.7174 -23.6839 -21.8071 -21.7388 -21.7313 -21.7240
   -21.5584 -21.5334 -21.5176 -21.4963 -21.4490 -21.4336 -21.4282 -21.4047
   -21.3652 -21.3239 -21.2944 -21.2523 -20.2220 -20.1872 -20.0725 -20.0505
   -20.0451 -20.0189 -19.1518 -19.1430 -19.1051 -19.1029 -18.9334 -18.9207
   -18.9063 -18.8998 -18.0767 -18.0254 -17.8935 -17.8736 -17.8524 -17.8338
   -16.1568 -16.1085 -15.9606 -15.9273 -15.8942 -15.8728 -15.1577 -15.1069
   -14.9819 -14.9630 -14.9439 -14.9244 -13.5440 -13.4962 -13.3437 -13.3088
   -13.2404 -13.2175 -12.1836 -12.1371 -12.0103 -11.9874 -11.9728 -11.9499
   -11.4601 -11.4128 -11.1892 -11.1639 -11.1355 -11.0792 -11.0604 -11.0450
   -10.9315 -10.8900 -10.8664 -10.8302 -10.1369 -10.1008  -9.9774  -9.9623
    -9.9479  -9.9259  -9.7244  -9.6856  -9.5664  -9.5081  -9.4576  -9.3722
    -9.3482  -9.2945  -9.2408  -9.1828  -9.1482  -9.1068  -9.0612  -9.0198
    -9.0035  -8.9717  -8.9288  -8.9064  -8.8931  -8.8579  -8.8195  -8.7999
    -8.7750  -8.7071  -8.6785  -8.5870  -8.5858  -8.5266  -8.4574  -8.4229
    -8.2832  -8.2675  -8.2498  -8.2450  -8.0908  -8.0243  -7.9653  -7.9486
    -7.9346  -7.9077  -7.8424  -7.8335  -7.7781  -7.7660  -7.6385  -7.6234
    -7.4824  -7.4405  -7.3705  -7.3348  -7.3144  -7.3096  -7.2722  -7.2550
    -7.1990  -7.1675  -7.1470  -7.1287  -6.8163  -6.7452  -6.5293  -6.4917
    -6.4751  -6.4568  -6.4336  -6.4114  -6.3948  -6.3506  -6.3336  -6.3174
    -6.2983  -6.2600  -6.2379  -6.1568  -6.0359  -5.9935  -5.9717  -5.8846
    -5.7778  -5.7327  -5.6956  -5.6877  -5.6518  -5.6328  -5.5664  -5.5368
    -5.4680  -5.4261  -5.3773  -5.3457  -5.3253  -5.3014  -5.2961  -5.2922
    -5.2664  -5.2448  -5.2105  -5.1641  -5.0574  -5.0090  -4.9442  -4.8875
    -4.7778  -4.7412  -4.7329  -4.6926  -4.6683  -4.6613  -4.6331  -4.6228
    -4.6015  -4.5764  -4.4972  -4.4850  -4.4478  -4.4196  -4.3676  -4.3116
    -4.2803  -4.2557  -4.2375  -4.2167  -4.1990  -4.1730  -4.1505  -4.1022
    -4.0928  -4.0824  -4.0743  -4.0631  -4.0041  -3.9678  -3.9660  -3.9541
    -3.9381  -3.9171  -3.8514  -3.7975  -3.7537  -3.7030  -3.6879  -3.6516
    -3.6053  -3.5281  -3.5209  -3.4826  -3.4437  -3.4337  -3.4153  -3.4081
    -3.3795  -3.3658  -3.2995  -3.2786  -3.2552  -3.2356  -2.1437  -2.0979
    -1.9704  -1.9410  -1.9355  -1.9270  -0.1871  -0.1481  -0.0285   0.0071
     0.0563   0.0780   0.1515   0.1582   0.1847   0.2395   0.3182   0.3530
     0.3874   0.4143   0.5148   0.5368   0.5793   0.6379   0.6520   0.6734
     0.7760   0.8328   0.8714   0.8900   0.9053   1.0223   1.0444   1.1840
     1.2063   1.2220   1.9889   2.0565   2.0995   2.1776   2.1845   2.2427
     2.2553   2.2635   2.2708   2.2878   2.3257   2.3597   2.3762   2.4147
     2.4669   2.6170   2.6532   2.6869   2.7301   2.8496   2.9071   2.9591
     2.9964   3.0056   3.0552   3.1083   3.1262

     occupation numbers
     1.0000   1.0000   1.0000   1.0000   1.0000   1.0000   1.0000   1.0000
     1.0000   1.0000   1.0000   1.0000   1.0000   1.0000   1.0000   1.0000
     1.0000   1.0000   1.0000   1.0000   1.0000   1.0000   1.0000   1.0000
     1.0000   1.0000   1.0000   1.0000   1.0000   1.0000   1.0000   1.0000
     1.0000   1.0000   1.0000   1.0000   1.0000   1.0000   1.0000   1.0000
     1.0000   1.0000   1.0000   1.0000   1.0000   1.0000   1.0000   1.0000
     1.0000   1.0000   1.0000   1.0000   1.0000   1.0000   1.0000   1.0000
     1.0000   1.0000   1.0000   1.0000   1.0000   1.0000   1.0000   1.0000
     1.0000   1.0000   1.0000   1.0000   1.0000   1.0000   1.0000   1.0000
     1.0000   1.0000   1.0000   1.0000   1.0000   1.0000   1.0000   1.0000
     1.0000   1.0000   1.0000   1.0000   1.0000   1.0000   1.0000   1.0000
     1.0000   1.0000   1.0000   1.0000   1.0000   1.0000   1.0000   1.0000
     1.0000   1.0000   1.0000   1.0000   1.0000   1.0000   1.0000   1.0000
     1.0000   1.0000   1.0000   1.0000   1.0000   1.0000   1.0000   1.0000
     1.0000   1.0000   1.0000   1.0000   1.0000   1.0000   1.0000   1.0000
     1.0000   1.0000   1.0000   1.0000   1.0000   1.0000   1.0000   1.0000
     1.0000   1.0000   1.0000   1.0000   1.0000   1.0000   1.0000   1.0000
     1.0000   1.0000   1.0000   1.0000   1.0000   1.0000   1.0000   1.0000
     1.0000   1.0000   1.0000   1.0000   1.0000   1.0000   1.0000   1.0000
     1.0000   1.0000   1.0000   1.0000   1.0000   1.0000   1.0000   1.0000
     1.0000   1.0000   1.0000   1.0000   1.0000   1.0000   1.0000   1.0000
     1.0000   1.0000   1.0000   1.0000   1.0000   1.0000   1.0000   1.0000
     1.0000   1.0000   1.0000   1.0000   1.0000   1.0000   1.0000   1.0000
     1.0000   1.0000   1.0000   1.0000   1.0000   1.0000   1.0000   1.0000
     1.0000   1.0000   1.0000   1.0000   1.0000   1.0000   1.0000   1.0000
     1.0000   1.0000   1.0000   1.0000   1.0000   1.0000   1.0000   1.0000
     1.0000   1.0000   1.0000   1.0000   1.0000   1.0000   1.0000   1.0000
     1.0000   1.0000   1.0000   1.0000   1.0000   1.0000   1.0000   1.0000
     1.0000   1.0000   1.0000   1.0000   1.0000   1.0000   1.0000   1.0000
     1.0000   1.0000   1.0000   1.0000   1.0000   1.0000   1.0000   1.0000
     1.0000   1.0000   1.0000   1.0000   1.0000   1.0000   1.0000   1.0000
     1.0000   1.0000   1.0000   1.0000   1.0000   1.0000   1.0000   1.0000
     1.0000   1.0000   1.0000   1.0000   1.0000   1.0000   1.0000   1.0000
     1.0000   1.0000   1.0000   1.0000   1.0000   1.0000   1.0000   1.0000
     1.0000   1.0000   1.0000   1.0000   1.0000   1.0000   0.9887   0.9856
     0.9726   0.9685   0.9677   0.9664   0.0370   0.0309   0.0172   0.0143
     0.0109   0.0097   0.0064   0.0061   0.0052   0.0038   0.0023   0.0018
     0.0014   0.0012   0.0006   0.0005   0.0004   0.0002   0.0002   0.0002
     0.0001   0.0000   0.0000   0.0000   0.0000   0.0000   0.0000   0.0000
     0.0000   0.0000   0.0000   0.0000   0.0000   0.0000   0.0000   0.0000
     0.0000   0.0000   0.0000   0.0000   0.0000   0.0000   0.0000   0.0000
     0.0000   0.0000   0.0000   0.0000   0.0000   0.0000   0.0000   0.0000
     0.0000   0.0000   0.0000   0.0000   0.0000

     the Fermi energy is    -1.0465 ev

!    total energy              =   -3503.76886610 Ry
     estimated scf accuracy    <          9.0E-09 Ry
     smearing contrib. (-TS)   =      -0.05111736 Ry
     internal energy E=F+TS    =   -3503.71774874 Ry

     The total energy is F=E-TS. E is the sum of the following terms:
     one-electron contribution =   -8377.38715024 Ry
     hartree contribution      =    4303.98169867 Ry
     xc contribution           =    -690.14303766 Ry
     ewald contribution        =    1898.67339635 Ry
     DFT-D3 Dispersion         =      -0.33442824 Ry
     one-center paw contrib.   =    -638.50822761 Ry
      -> PAW hartree energy AE =       0.00000000 Ry
      -> PAW hartree energy PS =       0.00000000 Ry
      -> PAW xc energy AE      =       0.00000000 Ry
      -> PAW xc energy PS      =       0.00000000 Ry
      -> total E_H with PAW    =    4303.98169867 Ry
      -> total E_XC with PAW   =    -690.14303766 Ry

     convergence has been achieved in  22 iterations

     Writing all to output data dir ./tmp/MIL125_NH2_opt.save/ :
     XML data file, charge density, pseudopotentials, collected wavefunctions

     General routines

     Parallel routines

     PAW routines

   This run was terminated on:  17:53:58  13Apr2025

   JOB DONE.
Note: The following floating-point exceptions are signalling: IEEE_DENORMAL
Note: The following floating-point exceptions are signalling: IEEE_DENORMAL
Note: The following floating-point exceptions are signalling: IEEE_DENORMAL