     Program PWSCF v.7.3.1 starts on 13Apr2025 at 17:36: 2

     Waiting for input...
     Reading input from standard input

     Current dimensions of program PWSCF are:
     Max number of different atomic species (ntypx) = 10
     Max number of k-points (npk) =  40000
     Max angular momentum in pseudopotentials (lmaxx) =  4
     file C.pbe-n-kjpaw_psl.1.0.0.UPF: wavefunction(s)  2S 2P renormalized
     file O.pbe-n-kjpaw_psl.0.1.UPF: wavefunction(s)  2P renormalized

     R & G space division:  proc/nbgrp/npool/nimage =      31
     Subspace diagonalization in iterative solution of the eigenvalue problem:
     one sub-group per band group will be used

     Using Slab Decomposition

     bravais-lattice index     =            0
     lattice parameter (alat)  =      30.1491  a.u.
     unit-cell volume          =   20353.3775 (a.u.)^3
     number of atoms/cell      =          124
     number of atomic types    =            5
     number of electrons       =       526.00
     number of Kohn-Sham states=          316
     kinetic-energy cutoff     =      80.0000  Ry
     charge density cutoff     =     640.0000  Ry
     scf convergence threshold =      1.0E-08
     mixing beta               =       0.2000
     number of iterations used =            8  plain     mixing
     Exchange-correlation= SLA  PW   PBX  PBC
                           (   1   4   3   4   0   0   0)

     celldm(1)=  30.149070  celldm(2)=   0.000000  celldm(3)=   0.000000
     celldm(4)=   0.000000  celldm(5)=   0.000000  celldm(6)=   0.000000

     crystal axes: (cart. coord. in units of alat)
               a(1) = (   0.999374  -0.034929   0.005614 )
               a(2) = (  -0.409708   0.918648  -0.003543 )
               a(3) = (  -0.290503  -0.442929   0.820779 )

     reciprocal axes: (cart. coord. in units 2 pi/alat)
               b(1) = (  1.013109  0.454164  0.603662 )
               b(2) = (  0.035253  1.106629  0.609664 )
               b(3) = ( -0.006777  0.001670  1.216857 )

     PseudoPot. # 1 for Ti read from file:
     /home/yongsang/Research/PSID_server_room/qe/[00]QE/qepseudo/SSSP_1.3.0_PBE_efficiency/ti_pbe_v1.4.uspp.F.UPF
     MD5 check sum: 88a00a6731bd790ddea75d31a80cb452
     Pseudo is Ultrasoft + core correction, Zval = 12.0
     Generated by new atomic code, or converted to UPF format
     Using radial grid of  851 points,  6 beta functions with:
                l(1) =   0
                l(2) =   0
                l(3) =   1
                l(4) =   1
                l(5) =   2
                l(6) =   2
     Q(r) pseudized with  6 coefficients,  rinner =    1.000   1.000   1.000
                                                       1.000   1.000

     PseudoPot. # 2 for N  read from file:
     /home/yongsang/Research/PSID_server_room/qe/[00]QE/qepseudo/SSSP_1.3.0_PBE_efficiency/N.pbe-n-radius_5.UPF
     MD5 check sum: 16739722b17309cd8fe442a2ace49922
     Pseudo is Ultrasoft + core correction, Zval =  5.0
     Generated using "atomic" code by A. Dal Corso  v.5.1
     Using radial grid of 1085 points,  4 beta functions with:
                l(1) =   0
                l(2) =   0
                l(3) =   1
                l(4) =   1
     Q(r) pseudized with 0 coefficients

     PseudoPot. # 3 for C  read from file:
     /home/yongsang/Research/PSID_server_room/qe/[00]QE/qepseudo/SSSP_1.3.0_PBE_efficiency/C.pbe-n-kjpaw_psl.1.0.0.UPF
     MD5 check sum: 5d2aebdfa2cae82b50a7e79e9516da0f
     Pseudo is Projector augmented-wave + core cor, Zval =  4.0
     Generated using "atomic" code by A. Dal Corso  v.5.1
     Shape of augmentation charge: PSQ
     Using radial grid of 1073 points,  4 beta functions with:
                l(1) =   0
                l(2) =   0
                l(3) =   1
                l(4) =   1
     Q(r) pseudized with 0 coefficients

     PseudoPot. # 4 for H  read from file:
     /home/yongsang/Research/PSID_server_room/qe/[00]QE/qepseudo/SSSP_1.3.0_PBE_efficiency/H.pbe-rrkjus_psl.1.0.0.UPF
     MD5 check sum: f52b6d4d1c606e5624b1dc7b2218f220
     Pseudo is Ultrasoft, Zval =  1.0
     Generated using "atomic" code by A. Dal Corso  v.5.1
     Using radial grid of  929 points,  2 beta functions with:
                l(1) =   0
                l(2) =   0
     Q(r) pseudized with 0 coefficients

     PseudoPot. # 5 for O  read from file:
     /home/yongsang/Research/PSID_server_room/qe/[00]QE/qepseudo/SSSP_1.3.0_PBE_efficiency/O.pbe-n-kjpaw_psl.0.1.UPF
     MD5 check sum: 0234752ac141de4415c5fc33072bef88
     Pseudo is Projector augmented-wave + core cor, Zval =  6.0
     Generated using "atomic" code by A. Dal Corso  v.5.0.99 svn rev. 10869
     Shape of augmentation charge: BESSEL
     Using radial grid of 1095 points,  4 beta functions with:
                l(1) =   0
                l(2) =   0
                l(3) =   1
                l(4) =   1
     Q(r) pseudized with 0 coefficients

     atomic species   valence    mass     pseudopotential
     Ti               12.00    47.86700     Ti( 1.00)
     N                 5.00    14.00674     N ( 1.00)
     C                 4.00    12.01070     C ( 1.00)
     H                 1.00     1.00794     H ( 1.00)
     O                 6.00    15.99940     O ( 1.00)

     No symmetry found

                                    s                        frac. trans.

      isym =  1     identity

 cryst.   s( 1) = (     1          0          0      )
                  (     0          1          0      )
                  (     0          0          1      )

 cart.    s( 1) = (  1.0000000  0.0000000  0.0000000 )
                  ( -0.0000000  1.0000000  0.0000000 )
                  (  0.0000000  0.0000000  1.0000000 )

   Cartesian axes

     site n.     atom                  positions (alat units)
         1        Ti     tau(   1) = (  -0.1797271   0.1371281   0.7033818  )
         2        Ti     tau(   2) = (   0.4916574   0.3187794   0.1165871  )
         3        Ti     tau(   3) = (   0.0765269  -0.1061372   0.5856410  )
         4        Ti     tau(   4) = (   0.1691269   0.4686137   0.2311966  )
         5        Ti     tau(   5) = (   0.1087930   0.5715478   0.1102491  )
         6        Ti     tau(   6) = (   0.1904268  -0.1251622   0.7102047  )
         7        Ti     tau(   7) = (  -0.1224430   0.0304121   0.5830106  )
         8        Ti     tau(   8) = (   0.3712621   0.3387596   0.2352330  )
         9        H      tau(   9) = (   0.2313799   0.1013285   0.5446288  )
        10        H      tau(  10) = (  -0.0135021  -0.2668884   0.4078563  )
        11        H      tau(  11) = (   0.2939533   0.6773544   0.2908912  )
        12        H      tau(  12) = (  -0.1352203   0.3836944   0.6904702  )
        13        H      tau(  13) = (   0.5345792   0.0723414   0.1356191  )
        14        H      tau(  14) = (  -0.4251073   0.0831232   0.6812825  )
        15        H      tau(  15) = (   0.7029608   0.4529488   0.1292384  )
        16        H      tau(  16) = (   0.2696257  -0.3783773   0.6880732  )
        17        H      tau(  17) = (  -0.1504306   0.5454953   0.1287693  )
        18        H      tau(  18) = (   0.2921291   0.1939318   0.4328817  )
        19        H      tau(  19) = (  -0.0037904   0.2317970   0.5250983  )
        20        H      tau(  20) = (  -0.2331597  -0.1105653   0.3968409  )
        21        H      tau(  21) = (   0.1375693   0.4677653  -0.0073031  )
        22        H      tau(  22) = (   0.3758250   0.3017509   0.0081552  )
        23        H      tau(  23) = (   0.2358580  -0.1524517   0.3656314  )
        24        H      tau(  24) = (   0.0620611   0.5860924   0.4557851  )
        25        H      tau(  25) = (  -0.3674634   0.2568518   0.5621516  )
        26        H      tau(  26) = (   0.6683108   0.1881587   0.2608305  )
        27        H      tau(  27) = (  -0.2314869   0.1524391   0.3538544  )
        28        H      tau(  28) = (  -0.0769190   0.7025356   0.2560868  )
        29        H      tau(  29) = (   0.1205507   0.7657635   0.1606445  )
        30        H      tau(  30) = (   0.5219951  -0.0540762   0.2103515  )
        31        H      tau(  31) = (   0.3016025   0.4494300   0.1495549  )
        32        H      tau(  32) = (   0.0106915   0.0115229   0.6637217  )
        33        H      tau(  33) = (   0.4624396  -0.0146006   0.6128558  )
        34        H      tau(  34) = (   0.3678266  -0.0429982   0.6593950  )
        35        H      tau(  35) = (   0.5075249   0.2992532   0.5415928  )
        36        H      tau(  36) = (   0.4680035   0.3151895   0.4404633  )
        37        H      tau(  37) = (   0.4294254  -0.3108351   0.5991165  )
        38        H      tau(  38) = (   0.3481097  -0.2428757   0.6278657  )
        39        H      tau(  39) = (   0.0842072   0.1219372   0.5899036  )
        40        H      tau(  40) = (   0.0567543   0.3245655   0.4132411  )
        41        H      tau(  41) = (   0.3733607   0.5528052   0.2432316  )
        42        H      tau(  42) = (  -0.4861265   0.5557586   0.2968141  )
        43        C      tau(  43) = (   0.5343954   0.2775011   0.2953394  )
        44        C      tau(  44) = (  -0.2378821   0.1599308   0.5253807  )
        45        C      tau(  45) = (   0.2402920  -0.1659924   0.5308585  )
        46        C      tau(  46) = (   0.0526825   0.5981245   0.2886231  )
        47        C      tau(  47) = (   0.5919684   0.2419125   0.3576227  )
        48        C      tau(  48) = (  -0.2943170   0.2012911   0.4640579  )
        49        C      tau(  49) = (   0.3006394  -0.2027911   0.4721370  )
        50        C      tau(  50) = (  -0.0018126   0.6405510   0.3509047  )
        51        C      tau(  51) = (   0.5798428   0.2518785   0.4459416  )
        52        C      tau(  52) = (  -0.2831151   0.1905319   0.3770097  )
        53        C      tau(  53) = (   0.3694395  -0.2532787   0.5008203  )
        54        C      tau(  54) = (  -0.0677899   0.6926711   0.3229657  )
        55        C      tau(  55) = (   0.0110170   0.6270949   0.4360614  )
        56        C      tau(  56) = (   0.2888652  -0.1908204   0.3852462  )
        57        C      tau(  57) = (   0.6608825   0.1944248   0.3284362  )
        58        C      tau(  58) = (  -0.3605217   0.2494236   0.4945598  )
        59        C      tau(  59) = (   0.1781456   0.2648609   0.4168300  )
        60        C      tau(  60) = (   0.1104649   0.1616610   0.5409815  )
[...]
       110        O      tau( 110) = (  -0.1244620  -0.0627024   0.4964227  )
       111        O      tau( 111) = (   0.2415619  -0.2375615   0.7502812  )
       112        O      tau( 112) = (   0.1328347   0.6865867   0.0694811  )
       113        O      tau( 113) = (   0.2901606  -0.0617234   0.7502603  )
       114        O      tau( 114) = (  -0.0115525   0.5745505   0.0676459  )
       115        O      tau( 115) = (  -0.0079250  -0.1418634   0.4980323  )
       116        O      tau( 116) = (   0.1685984   0.3781619   0.3206244  )
       117        O      tau( 117) = (   0.5844197   0.3845271   0.0694829  )
       118        O      tau( 118) = (  -0.3004082   0.1384430   0.7473545  )
[...]
         C          3.356            2.750     47.36   1369.72
         C          3.368            2.750     47.06   1360.96
         C          3.356            2.750     47.35   1369.32
         C          3.360            2.750     47.25   1366.57
         C          3.210            2.750     49.94   1444.46
         C          3.187            2.750     50.19   1451.73
         C          3.208            2.750     49.97   1445.08
         C          3.187            2.750     50.20   1451.73
         C          3.162            2.750     50.43   1458.51
         C          3.153            2.750     50.51   1460.88
         C          3.164            2.750     50.42   1458.10
         C          3.158            2.750     50.47   1459.62
         C          3.209            2.750     49.95   1444.70
         C          3.169            2.750     50.37   1456.74
         C          3.174            2.750     50.32   1455.33
         C          3.214            2.750     49.90   1443.08
         C          3.186            2.750     50.20   1451.97
         C          3.138            2.750     50.63   1464.31
[...]
         O          2.031            2.345     20.80    419.79
         O          2.023            2.345     20.81    419.87
         O          2.057            2.345     20.79    419.57
         O          2.056            2.345     20.79    419.58
         O          2.036            2.345     20.80    419.75
         O          2.033            2.345     20.80    419.77
         O          2.031            2.345     20.80    419.79
         O          2.053            2.345     20.79    419.60
         O          2.033            2.345     20.80    419.77
         O          2.036            2.345     20.80    419.75
         O          2.051            2.345     20.79    419.61
         O          2.951            2.345     20.74    418.58
         O          2.952            2.345     20.74    418.58
         O          2.942            2.345     20.74    418.58
         O          2.942            2.345     20.74    418.58

         Molecular C6 ( Ry / a.u.^6 ) =    592725.54

   Crystallographic axes

     site n.     atom                  positions (cryst. coord.)
         1        Ti     tau(   1) = (  0.3048006  0.5742405  0.8573624  )
         2        Ti     tau(   2) = (  0.7132598  0.4411819  0.1390700  )
         3        Ti     tau(   3) = (  0.3828558  0.2422874  0.7119457  )
         4        Ti     tau(   4) = (  0.5237360  0.6654961  0.2809696  )
         5        Ti     tau(   5) = (  0.4363488  0.7035417  0.1343745  )
         6        Ti     tau(   6) = (  0.5648027  0.3011911  0.8627182  )
         7        Ti     tau(   7) = (  0.2417056  0.3847790  0.7103214  )
         8        Ti     tau(   8) = (  0.6719825  0.5313824  0.2842945  )
         9        H      tau(   9) = (  0.6092046  0.4523303  0.6613367  )
        10        H      tau(  10) = (  0.1113173 -0.0471672  0.4959488  )
        11        H      tau(  11) = (  0.7810366  0.9372886  0.3531119  )
        12        H      tau(  12) = (  0.4540781  0.8407953  0.8417609  )
        13        H      tau(  13) = (  0.6563098  0.1815826  0.1615268  )
        14        H      tau(  14) = (  0.0183362  0.4923536  0.8320436  )
        15        H      tau(  15) = (  0.9959050  0.6048197  0.1532567  )
        16        H      tau(  16) = (  0.5166786  0.0102751  0.8348277  )
        17        H      tau(  17) = (  0.1730749  0.6768639  0.1586243  )
        18        H      tau(  18) = (  0.6453498  0.4888213  0.5250993  )
        19        H      tau(  19) = (  0.4184158  0.5765131  0.6393825  )
        20        H      tau(  20) = ( -0.0468731  0.1113652  0.4842944  )
        21        H      tau(  21) = (  0.3474062  0.5180400 -0.0090381  )
        22        H      tau(  22) = (  0.5227190  0.3521472  0.0078805  )
        23        H      tau(  23) = (  0.3904296  0.0625194  0.4430682  )
        24        H      tau(  24) = (  0.6041969  0.9286505  0.5551835  )
        25        H      tau(  25) = (  0.0837222  0.6140091  0.6869778  )
        26        H      tau(  26) = (  0.9199799  0.3908007  0.3131783  )
        27        H      tau(  27) = (  0.0483196  0.3762653  0.4324138  )
        28        H      tau(  28) = (  0.3957289  0.9308616  0.3133155  )
        29        H      tau(  29) = (  0.5668882  0.9496052  0.1959431  )
        30        H      tau(  30) = (  0.6312596  0.0868032  0.2523397  )
        31        H      tau(  31) = (  0.5999517  0.5991630  0.1806934  )
        32        H      tau(  32) = (  0.4167287  0.4177756  0.8076015  )
        33        H      tau(  33) = (  0.8318284  0.3737809  0.7425996  )
        34        H      tau(  34) = (  0.7511719  0.3673932  0.7998250  )
        35        H      tau(  35) = (  0.9770270  0.6792435  0.6561011  )
        36        H      tau(  36) = (  0.8831772  0.6338309  0.5333354  )
        37        H      tau(  37) = (  0.6555485  0.0364189  0.7256099  )
        38        H      tau(  38) = (  0.6213864  0.1262855  0.7612582  )
        39        H      tau(  39) = (  0.4967930  0.4975507  0.7174614  )
        40        H      tau(  40) = (  0.4543623  0.6131126  0.5030128  )
        41        H      tau(  41) = (  0.7761489  0.7732019  0.2943708  )
        42        H      tau(  42) = ( -0.0609180  0.7788381  0.3654032  )
        43        C      tau(  43) = (  0.8457168  0.5059875  0.3562275  )
        44        C      tau(  44) = (  0.1487869  0.4889036  0.6411927  )
        45        C      tau(  45) = (  0.4885134  0.1484242  0.6440734  )
        46        C      tau(  46) = (  0.4992505  0.8397223  0.3518549  )
        47        C      tau(  47) = (  0.9254796  0.5066057  0.4315678  )
        48        C      tau(  48) = (  0.0733783  0.4952984  0.5670232  )
        49        C      tau(  49) = (  0.4974913  0.0740286  0.5721472  )
        50        C      tau(  50) = (  0.5009068  0.9227224  0.4280828  )
        51        C      tau(  51) = (  0.9710360  0.5710517  0.5391380  )
        52        C      tau(  52) = (  0.0272929  0.4307168  0.4610040  )
        53        C      tau(  53) = (  0.5615786  0.0380702  0.6065001  )
        54        C      tau(  54) = (  0.4408699  0.9610408  0.3946193  )
        55        C      tau(  55) = (  0.5591991  0.9602008  0.5315970  )
        56        C      tau(  56) = (  0.4385467  0.0338866  0.4665133  )
        57        C      tau(  57) = (  0.9561110  0.4386898  0.3955055  )
        58        C      tau(  58) = (  0.0465786  0.5648252  0.6046686  )
        59        C      tau(  59) = (  0.5523957  0.5535091  0.5064575  )
        60        C      tau(  60) = (  0.5119036  0.5126098  0.6578186  )
[...]
       110        O      tau( 110) = (  0.1451009  0.2288750  0.6048145  )
       111        O      tau( 111) = (  0.5897530  0.2030425  0.9109514  )
       112        O      tau( 112) = (  0.4883420  0.8068398  0.0847948  )
       113        O      tau( 113) = (  0.7188355  0.3993307  0.9108902  )
       114        O      tau( 114) = (  0.2900714  0.6766484  0.0833531  )
       115        O      tau( 115) = (  0.2281851  0.1463627  0.6058511  )
       116        O      tau( 116) = (  0.5361048  0.6199017  0.3896430  )
       117        O      tau( 117) = (  0.8086633  0.4884926  0.0812320  )
       118        O      tau( 118) = (  0.2096794  0.5982498  0.9116910  )
       119        O      tau( 119) = (  0.6799069  0.2920220  0.0827428  )
       120        O      tau( 120) = (  0.4106345  0.7263223  0.9143237  )
       121        O      tau( 121) = (  0.5877411  0.5872066  0.2351027  )
       122        O      tau( 122) = (  0.3495348  0.3511936  0.7556639  )
       123        O      tau( 123) = (  0.5875397  0.3844684  0.0024510  )
       124        O      tau( 124) = (  0.3836918  0.5872362 -0.0051872  )

     number of k points=     1  Gaussian smearing, width (Ry)=  0.0500
                       cart. coord. in units 2pi/alat
        k(    1) = (   0.0000000   0.0000000   0.0000000), wk =   2.0000000

                       cryst. coord.
        k(    1) = (   0.0000000   0.0000000   0.0000000), wk =   2.0000000

     Initial potential from superposition of free atoms

     starting charge     517.9973, renormalised to     526.0000

     negative rho (up, down):  1.129E-02 0.000E+00
[ga01:336833] Set MCA parameter "orte_base_help_aggregate" to 0 to see all help / error messages
     Starting wfcs are  442 randomized atomic wfcs
     Checking if some PAW data can be deallocated...

     Self-consistent Calculation

     iteration #  1     ecut=    80.00 Ry     beta= 0.20
     Davidson diagonalization with overlap

     ethr =  1.00E-02,  avg # of iterations =  3.0

     negative rho (up, down):  3.742E-03 0.000E+00

     total energy              =   -3218.90137500 Ry
     estimated scf accuracy    <     150.39510691 Ry

[...]

     total energy              =   -3259.64025415 Ry
     estimated scf accuracy    <       0.00000002 Ry

     iteration # 26     ecut=    80.00 Ry     beta= 0.20
     Davidson diagonalization with overlap

     ethr =  3.21E-12,  avg # of iterations =  2.0

     negative rho (up, down):  9.792E-03 0.000E+00

     End of self-consistent calculation

          k = 0.0000 0.0000 0.0000 (245841 PWs)   bands (ev):

   -59.0757 -59.0634 -59.0521 -59.0443 -58.8975 -58.8767 -58.8636 -58.8630
   -35.6108 -35.6041 -35.5996 -35.5893 -35.3767 -35.3662 -35.3470 -35.3377
   -35.3375 -35.3328 -35.3328 -35.3308 -35.2180 -35.2157 -35.2140 -35.2119
   -35.1817 -35.1698 -35.1452 -35.1416 -35.1036 -35.0973 -35.0920 -35.0862
   -24.0642 -24.0287 -23.9707 -23.9663 -23.9444 -23.9391 -23.9252 -23.9245
   -23.6349 -23.6012 -21.7545 -21.7241 -21.6600 -21.6504 -21.6407 -21.6283
   -21.6001 -21.5889 -21.3581 -21.3427 -21.3160 -21.2923 -21.2120 -21.1803
   -20.0237 -20.0150 -19.9490 -19.9333 -19.0652 -19.0595 -19.0340 -19.0262
   -18.8832 -18.8830 -18.8749 -18.8588 -18.1088 -18.0819 -17.8953 -17.8772
   -17.7753 -17.7466 -16.0084 -15.9814 -15.8907 -15.8601 -15.6267 -15.6031
   -15.2451 -15.2156 -14.9919 -14.9747 -14.8895 -14.8586 -13.4394 -13.4254
   -13.3310 -13.2842 -12.6382 -12.6149 -12.0056 -11.9902 -11.8880 -11.8622
   -11.6805 -11.6532 -11.4042 -11.2684 -11.2180 -11.1418 -11.0027 -10.9222
   -10.8045 -10.7803 -10.6978 -10.6798  -9.9728  -9.9465  -9.8484  -9.8226
    -9.7903  -9.7276  -9.6438  -9.5904  -9.5686  -9.4158  -9.3889  -9.3633
    -9.2990  -9.2158  -9.1863  -9.0918  -9.0559  -9.0332  -8.9620  -8.9549
    -8.9021  -8.8645  -8.8350  -8.7859  -8.6228  -8.5674  -8.5471  -8.5202
    -8.3802  -8.3130  -8.2945  -8.2302  -8.2262  -8.1813  -8.0121  -7.9901
    -7.9794  -7.9589  -7.9555  -7.9174  -7.8706  -7.8483  -7.7012  -7.6446
    -7.6194  -7.5803  -7.4082  -7.3808  -7.3132  -7.2970  -7.2209  -7.2165
    -7.1995  -7.1782  -7.0787  -7.0555  -6.9878  -6.9550  -6.7138  -6.6362
    -6.4877  -6.4594  -6.4508  -6.3562  -6.3162  -6.3012  -6.2429  -6.2177
    -6.1668  -6.1256  -5.9699  -5.9341  -5.8955  -5.8791  -5.8440  -5.8135
    -5.7322  -5.6705  -5.6277  -5.5435  -5.5313  -5.5187  -5.4498  -5.4415
    -5.4162  -5.4033  -5.3654  -5.3315  -5.3150  -5.2928  -5.2652  -5.1939
    -5.1803  -5.1499  -5.1355  -5.0972  -5.0112  -4.9713  -4.9383  -4.9112
    -4.8995  -4.8680  -4.7994  -4.7555  -4.7233  -4.7133  -4.6777  -4.6275
    -4.5771  -4.5323  -4.5207  -4.5005  -4.4787  -4.4462  -4.3924  -4.3502
    -4.3143  -4.2770  -4.2587  -4.2536  -4.2239  -4.2142  -4.1938  -4.1305
    -4.0966  -4.0809  -4.0594  -3.9977  -3.9809  -3.9750  -3.9512  -3.9108
    -3.8860  -3.8640  -3.8602  -3.8169  -3.7225  -3.6909  -3.6092  -3.5839
    -3.3882  -3.3443  -3.2676  -3.2576  -3.2469  -3.2417  -3.2261  -3.1613
    -3.1591  -3.1275  -1.9891  -1.9650  -1.9038  -1.8856  -0.2748   0.0213
     0.0991   0.1376   0.1815   0.2182   0.2852   0.3125   0.3280   0.3852
     0.4637   0.5463   0.5744   0.6114   0.6349   0.6434   0.7205   0.8710
     0.9247   0.9794   1.0058   1.0963   1.2047   1.2876   1.3394   1.3443
     1.4518   1.5096   1.5307   1.5657   1.9725   2.0070   2.1225   2.1357
     2.1575   2.2249   2.2640   2.2784   2.2983   2.3698   2.4091   2.4286
     2.4880   2.5596   2.5867   2.6395   2.6615   2.7210   2.7518   2.8817
     2.9718   2.9872   3.0299   3.0423

     occupation numbers
     1.0000   1.0000   1.0000   1.0000   1.0000   1.0000   1.0000   1.0000
     1.0000   1.0000   1.0000   1.0000   1.0000   1.0000   1.0000   1.0000
     1.0000   1.0000   1.0000   1.0000   1.0000   1.0000   1.0000   1.0000
     1.0000   1.0000   1.0000   1.0000   1.0000   1.0000   1.0000   1.0000
     1.0000   1.0000   1.0000   1.0000   1.0000   1.0000   1.0000   1.0000
     1.0000   1.0000   1.0000   1.0000   1.0000   1.0000   1.0000   1.0000
     1.0000   1.0000   1.0000   1.0000   1.0000   1.0000   1.0000   1.0000
     1.0000   1.0000   1.0000   1.0000   1.0000   1.0000   1.0000   1.0000
     1.0000   1.0000   1.0000   1.0000   1.0000   1.0000   1.0000   1.0000
     1.0000   1.0000   1.0000   1.0000   1.0000   1.0000   1.0000   1.0000
     1.0000   1.0000   1.0000   1.0000   1.0000   1.0000   1.0000   1.0000
     1.0000   1.0000   1.0000   1.0000   1.0000   1.0000   1.0000   1.0000
     1.0000   1.0000   1.0000   1.0000   1.0000   1.0000   1.0000   1.0000
     1.0000   1.0000   1.0000   1.0000   1.0000   1.0000   1.0000   1.0000
     1.0000   1.0000   1.0000   1.0000   1.0000   1.0000   1.0000   1.0000
     1.0000   1.0000   1.0000   1.0000   1.0000   1.0000   1.0000   1.0000
     1.0000   1.0000   1.0000   1.0000   1.0000   1.0000   1.0000   1.0000
     1.0000   1.0000   1.0000   1.0000   1.0000   1.0000   1.0000   1.0000
     1.0000   1.0000   1.0000   1.0000   1.0000   1.0000   1.0000   1.0000
     1.0000   1.0000   1.0000   1.0000   1.0000   1.0000   1.0000   1.0000
     1.0000   1.0000   1.0000   1.0000   1.0000   1.0000   1.0000   1.0000
     1.0000   1.0000   1.0000   1.0000   1.0000   1.0000   1.0000   1.0000
     1.0000   1.0000   1.0000   1.0000   1.0000   1.0000   1.0000   1.0000
     1.0000   1.0000   1.0000   1.0000   1.0000   1.0000   1.0000   1.0000
     1.0000   1.0000   1.0000   1.0000   1.0000   1.0000   1.0000   1.0000
     1.0000   1.0000   1.0000   1.0000   1.0000   1.0000   1.0000   1.0000
     1.0000   1.0000   1.0000   1.0000   1.0000   1.0000   1.0000   1.0000
     1.0000   1.0000   1.0000   1.0000   1.0000   1.0000   1.0000   1.0000
     1.0000   1.0000   1.0000   1.0000   1.0000   1.0000   1.0000   1.0000
     1.0000   1.0000   1.0000   1.0000   1.0000   1.0000   1.0000   1.0000
     1.0000   1.0000   1.0000   1.0000   1.0000   1.0000   1.0000   1.0000
     1.0000   1.0000   1.0000   1.0000   1.0000   1.0000   1.0000   1.0000
     1.0000   1.0000   0.9989   0.9987   0.9980   0.9978   0.3077   0.1318
     0.1003   0.0870   0.0734   0.0634   0.0478   0.0424   0.0396   0.0304
     0.0208   0.0136   0.0117   0.0095   0.0083   0.0079   0.0051   0.0020
     0.0014   0.0009   0.0008   0.0004   0.0002   0.0001   0.0001   0.0001
     0.0000   0.0000   0.0000   0.0000   0.0000   0.0000   0.0000   0.0000
     0.0000   0.0000   0.0000   0.0000   0.0000   0.0000   0.0000   0.0000
     0.0000   0.0000   0.0000   0.0000   0.0000   0.0000   0.0000   0.0000
     0.0000   0.0000   0.0000   0.0000

     the Fermi energy is    -0.5164 ev

!    total energy              =   -3259.64025418 Ry
     estimated scf accuracy    <          4.9E-09 Ry
     smearing contrib. (-TS)   =      -0.12360112 Ry
     internal energy E=F+TS    =   -3259.51665306 Ry

     The total energy is F=E-TS. E is the sum of the following terms:
     one-electron contribution =   -7234.63101627 Ry
     hartree contribution      =    3721.50224147 Ry
     xc contribution           =    -640.36851245 Ry
     ewald contribution        =    1482.41533994 Ry
     DFT-D3 Dispersion         =      -0.30970022 Ry
     one-center paw contrib.   =    -588.12500553 Ry
      -> PAW hartree energy AE =       0.00000000 Ry
      -> PAW hartree energy PS =       0.00000000 Ry
      -> PAW xc energy AE      =       0.00000000 Ry
      -> PAW xc energy PS      =       0.00000000 Ry
      -> total E_H with PAW    =    3721.50224147 Ry
      -> total E_XC with PAW   =    -640.36851245 Ry

     convergence has been achieved in  26 iterations

     Writing all to output data dir ./tmp/MIL125_NH2_convtest.save/ :
     XML data file, charge density, pseudopotentials, collected wavefunctions

     General routines

     Parallel routines

     PAW routines

   This run was terminated on:  17:52:45  13Apr2025

   JOB DONE.
Note: The following floating-point exceptions are signalling: IEEE_DENORMAL
Note: The following floating-point exceptions are signalling: IEEE_DENORMAL
Note: The following floating-point exceptions are signalling: IEEE_DENORMAL