     Program PWSCF v.7.3.1 starts on 13Apr2025 at 16:39:49

     Waiting for input...
     Reading input from standard input
Warning: card &CELL ignored
Warning: card   CELL_DOFREE = 'ALL' ignored
Warning: card   CELL_DYNAMICS = 'BFGS', ignored
Warning: card / ignored

     Current dimensions of program PWSCF are:
     Max number of different atomic species (ntypx) = 10
     Max number of k-points (npk) =  40000
     Max angular momentum in pseudopotentials (lmaxx) =  4
     file C.pbe-n-kjpaw_psl.1.0.0.UPF: wavefunction(s)  2S 2P renormalized
     file O.pbe-n-kjpaw_psl.0.1.UPF: wavefunction(s)  2P renormalized

     R & G space division:  proc/nbgrp/npool/nimage =      31
     Subspace diagonalization in iterative solution of the eigenvalue problem:
     one sub-group per band group will be used

     Using Slab Decomposition

     bravais-lattice index     =            0
     lattice parameter (alat)  =      30.1491  a.u.
     unit-cell volume          =   20353.3775 (a.u.)^3
     number of atoms/cell      =          124
     number of atomic types    =            5
     number of electrons       =       526.00
     number of Kohn-Sham states=          316
     kinetic-energy cutoff     =      80.0000  Ry
     charge density cutoff     =     640.0000  Ry
     scf convergence threshold =      1.0E-06
     mixing beta               =       0.2000
     number of iterations used =            8  plain     mixing
     energy convergence thresh.=      1.0E-04
     force convergence thresh. =      1.0E-03
     Exchange-correlation= SLA  PW   PBX  PBC
                           (   1   4   3   4   0   0   0)
     nstep                     =          300

     celldm(1)=  30.149070  celldm(2)=   0.000000  celldm(3)=   0.000000
     celldm(4)=   0.000000  celldm(5)=   0.000000  celldm(6)=   0.000000

     crystal axes: (cart. coord. in units of alat)
               a(1) = (   0.999374  -0.034929   0.005614 )
               a(2) = (  -0.409708   0.918648  -0.003543 )
               a(3) = (  -0.290503  -0.442929   0.820779 )

     reciprocal axes: (cart. coord. in units 2 pi/alat)
               b(1) = (  1.013109  0.454164  0.603662 )
               b(2) = (  0.035253  1.106629  0.609664 )
               b(3) = ( -0.006777  0.001670  1.216857 )

     PseudoPot. # 1 for Ti read from file:
     /home/yongsang/Research/PSID_server_room/qe/[00]QE/qepseudo/SSSP_1.3.0_PBE_efficiency/ti_pbe_v1.4.uspp.F.UPF
     MD5 check sum: 88a00a6731bd790ddea75d31a80cb452
     Pseudo is Ultrasoft + core correction, Zval = 12.0
     Generated by new atomic code, or converted to UPF format
     Using radial grid of  851 points,  6 beta functions with:
                l(1) =   0
                l(2) =   0
                l(3) =   1
                l(4) =   1
                l(5) =   2
                l(6) =   2
     Q(r) pseudized with  6 coefficients,  rinner =    1.000   1.000   1.000
                                                       1.000   1.000

     PseudoPot. # 2 for N  read from file:
     /home/yongsang/Research/PSID_server_room/qe/[00]QE/qepseudo/SSSP_1.3.0_PBE_efficiency/N.pbe-n-radius_5.UPF
     MD5 check sum: 16739722b17309cd8fe442a2ace49922
     Pseudo is Ultrasoft + core correction, Zval =  5.0
     Generated using "atomic" code by A. Dal Corso  v.5.1
     Using radial grid of 1085 points,  4 beta functions with:
                l(1) =   0
                l(2) =   0
                l(3) =   1
                l(4) =   1
     Q(r) pseudized with 0 coefficients

     PseudoPot. # 3 for C  read from file:
     /home/yongsang/Research/PSID_server_room/qe/[00]QE/qepseudo/SSSP_1.3.0_PBE_efficiency/C.pbe-n-kjpaw_psl.1.0.0.UPF
     MD5 check sum: 5d2aebdfa2cae82b50a7e79e9516da0f
     Pseudo is Projector augmented-wave + core cor, Zval =  4.0
     Generated using "atomic" code by A. Dal Corso  v.5.1
     Shape of augmentation charge: PSQ
     Using radial grid of 1073 points,  4 beta functions with:
                l(1) =   0
                l(2) =   0
                l(3) =   1
                l(4) =   1
     Q(r) pseudized with 0 coefficients

     PseudoPot. # 4 for H  read from file:
     /home/yongsang/Research/PSID_server_room/qe/[00]QE/qepseudo/SSSP_1.3.0_PBE_efficiency/H.pbe-rrkjus_psl.1.0.0.UPF
     MD5 check sum: f52b6d4d1c606e5624b1dc7b2218f220
     Pseudo is Ultrasoft, Zval =  1.0
     Generated using "atomic" code by A. Dal Corso  v.5.1
     Using radial grid of  929 points,  2 beta functions with:
                l(1) =   0
                l(2) =   0
     Q(r) pseudized with 0 coefficients

     PseudoPot. # 5 for O  read from file:
     /home/yongsang/Research/PSID_server_room/qe/[00]QE/qepseudo/SSSP_1.3.0_PBE_efficiency/O.pbe-n-kjpaw_psl.0.1.UPF
     MD5 check sum: 0234752ac141de4415c5fc33072bef88
     Pseudo is Projector augmented-wave + core cor, Zval =  6.0
     Generated using "atomic" code by A. Dal Corso  v.5.0.99 svn rev. 10869
     Shape of augmentation charge: BESSEL
     Using radial grid of 1095 points,  4 beta functions with:
                l(1) =   0
                l(2) =   0
                l(3) =   1
                l(4) =   1
     Q(r) pseudized with 0 coefficients

     atomic species   valence    mass     pseudopotential
     Ti               12.00    47.86700     Ti( 1.00)
     N                 5.00    14.00674     N ( 1.00)
     C                 4.00    12.01070     C ( 1.00)
     H                 1.00     1.00794     H ( 1.00)
     O                 6.00    15.99940     O ( 1.00)

     No symmetry found

                                    s                        frac. trans.

      isym =  1     identity

 cryst.   s( 1) = (     1          0          0      )
                  (     0          1          0      )
                  (     0          0          1      )

 cart.    s( 1) = (  1.0000000  0.0000000  0.0000000 )
                  ( -0.0000000  1.0000000  0.0000000 )
                  (  0.0000000  0.0000000  1.0000000 )

   Cartesian axes

     site n.     atom                  positions (alat units)
         1        Ti     tau(   1) = (  -0.1797271   0.1371281   0.7033818  )
         2        Ti     tau(   2) = (   0.4916574   0.3187794   0.1165871  )
         3        Ti     tau(   3) = (   0.0765269  -0.1061372   0.5856410  )
         4        Ti     tau(   4) = (   0.1691269   0.4686137   0.2311966  )
         5        Ti     tau(   5) = (   0.1087930   0.5715478   0.1102491  )
         6        Ti     tau(   6) = (   0.1904268  -0.1251622   0.7102047  )
         7        Ti     tau(   7) = (  -0.1224430   0.0304121   0.5830106  )
         8        Ti     tau(   8) = (   0.3712621   0.3387596   0.2352330  )
         9        H      tau(   9) = (   0.2313799   0.1013285   0.5446288  )
        10        H      tau(  10) = (  -0.0135021  -0.2668884   0.4078563  )
        11        H      tau(  11) = (   0.2939533   0.6773544   0.2908912  )
        12        H      tau(  12) = (  -0.1352203   0.3836944   0.6904702  )
        13        H      tau(  13) = (   0.5345792   0.0723414   0.1356191  )
        14        H      tau(  14) = (  -0.4251073   0.0831232   0.6812825  )
        15        H      tau(  15) = (   0.7029608   0.4529488   0.1292384  )
        16        H      tau(  16) = (   0.2696257  -0.3783773   0.6880732  )
        17        H      tau(  17) = (  -0.1504306   0.5454953   0.1287693  )
        18        H      tau(  18) = (   0.2921291   0.1939318   0.4328817  )
        19        H      tau(  19) = (  -0.0037904   0.2317970   0.5250983  )
        20        H      tau(  20) = (  -0.2331597  -0.1105653   0.3968409  )
        21        H      tau(  21) = (   0.1375693   0.4677653  -0.0073031  )
        22        H      tau(  22) = (   0.3758250   0.3017509   0.0081552  )
        23        H      tau(  23) = (   0.2358580  -0.1524517   0.3656314  )
        24        H      tau(  24) = (   0.0620611   0.5860924   0.4557851  )
        25        H      tau(  25) = (  -0.3674634   0.2568518   0.5621516  )
        26        H      tau(  26) = (   0.6683108   0.1881587   0.2608305  )
        27        H      tau(  27) = (  -0.2314869   0.1524391   0.3538544  )
        28        H      tau(  28) = (  -0.0769190   0.7025356   0.2560868  )
        29        H      tau(  29) = (   0.1205507   0.7657635   0.1606445  )
        30        H      tau(  30) = (   0.5219951  -0.0540762   0.2103515  )
        31        H      tau(  31) = (   0.3016025   0.4494300   0.1495549  )
        32        H      tau(  32) = (   0.0106915   0.0115229   0.6637217  )
        33        H      tau(  33) = (   0.4624396  -0.0146006   0.6128558  )
        34        H      tau(  34) = (   0.3678266  -0.0429982   0.6593950  )
        35        H      tau(  35) = (   0.5075249   0.2992532   0.5415928  )
        36        H      tau(  36) = (   0.4680035   0.3151895   0.4404633  )
        37        H      tau(  37) = (   0.4294254  -0.3108351   0.5991165  )
        38        H      tau(  38) = (   0.3481097  -0.2428757   0.6278657  )
        39        H      tau(  39) = (   0.0842072   0.1219372   0.5899036  )
        40        H      tau(  40) = (   0.0567543   0.3245655   0.4132411  )
        41        H      tau(  41) = (   0.3733607   0.5528052   0.2432316  )
        42        H      tau(  42) = (  -0.4861265   0.5557586   0.2968141  )
        43        C      tau(  43) = (   0.5343954   0.2775011   0.2953394  )
        44        C      tau(  44) = (  -0.2378821   0.1599308   0.5253807  )
        45        C      tau(  45) = (   0.2402920  -0.1659924   0.5308585  )
        46        C      tau(  46) = (   0.0526825   0.5981245   0.2886231  )
        47        C      tau(  47) = (   0.5919684   0.2419125   0.3576227  )
        48        C      tau(  48) = (  -0.2943170   0.2012911   0.4640579  )
        49        C      tau(  49) = (   0.3006394  -0.2027911   0.4721370  )
        50        C      tau(  50) = (  -0.0018126   0.6405510   0.3509047  )
        51        C      tau(  51) = (   0.5798428   0.2518785   0.4459416  )
        52        C      tau(  52) = (  -0.2831151   0.1905319   0.3770097  )
        53        C      tau(  53) = (   0.3694395  -0.2532787   0.5008203  )
        54        C      tau(  54) = (  -0.0677899   0.6926711   0.3229657  )
        55        C      tau(  55) = (   0.0110170   0.6270949   0.4360614  )
        56        C      tau(  56) = (   0.2888652  -0.1908204   0.3852462  )
        57        C      tau(  57) = (   0.6608825   0.1944248   0.3284362  )
        58        C      tau(  58) = (  -0.3605217   0.2494236   0.4945598  )
        59        C      tau(  59) = (   0.1781456   0.2648609   0.4168300  )
        60        C      tau(  60) = (   0.1104649   0.1616610   0.5409815  )
[...]
       110        O      tau( 110) = (  -0.1244620  -0.0627024   0.4964227  )
       111        O      tau( 111) = (   0.2415619  -0.2375615   0.7502812  )
       112        O      tau( 112) = (   0.1328347   0.6865867   0.0694811  )
       113        O      tau( 113) = (   0.2901606  -0.0617234   0.7502603  )
       114        O      tau( 114) = (  -0.0115525   0.5745505   0.0676459  )
       115        O      tau( 115) = (  -0.0079250  -0.1418634   0.4980323  )
[...]
     atom   15 type  4   force =    -0.00000873   -0.00000356    0.00000959
     atom   16 type  4   force =     0.00000131    0.00000121   -0.00001605
     atom   17 type  4   force =     0.00002697    0.00000672    0.00001419
     atom   18 type  4   force =    -0.00000567    0.00001033   -0.00001004
     atom   19 type  4   force =     0.00000295    0.00000213   -0.00000127
     atom   20 type  4   force =     0.00000161   -0.00000448   -0.00000106
     atom   21 type  4   force =    -0.00001250    0.00002997    0.00002773
     atom   22 type  4   force =    -0.00000335    0.00000353    0.00003973
     atom   23 type  4   force =     0.00000024    0.00000066   -0.00001086
     atom   24 type  4   force =     0.00000255    0.00000006   -0.00000873
     atom   25 type  4   force =     0.00000540   -0.00000240    0.00000123
     atom   26 type  4   force =    -0.00000745    0.00000568   -0.00001049
     atom   27 type  4   force =     0.00001649   -0.00001023   -0.00000225
     atom   28 type  4   force =     0.00001143   -0.00000904   -0.00001110
     atom   29 type  4   force =    -0.00000323   -0.00003021   -0.00001672
     atom   30 type  4   force =    -0.00000660    0.00000757    0.00000325
     atom   31 type  4   force =    -0.00001693    0.00000315    0.00000589
     atom   32 type  4   force =    -0.00002253    0.00001513    0.00000723
     atom   33 type  4   force =     0.00002378    0.00000264   -0.00000485
     atom   34 type  4   force =     0.00001892    0.00000804    0.00000871
     atom   35 type  4   force =     0.00000660   -0.00000407    0.00001426
     atom   36 type  4   force =     0.00000091   -0.00000148   -0.00001486
     atom   37 type  4   force =     0.00000537   -0.00000073   -0.00001667
     atom   38 type  4   force =     0.00002061   -0.00001235   -0.00002589
     atom   39 type  4   force =     0.00000253    0.00002188   -0.00001063
     atom   40 type  4   force =     0.00000848    0.00000351   -0.00001009
     atom   41 type  4   force =    -0.00000151    0.00000780    0.00000807
     atom   42 type  4   force =    -0.00000942    0.00000244   -0.00000347
     atom   43 type  3   force =    -0.00003939    0.00002649   -0.00003848
     atom   44 type  3   force =    -0.00000616    0.00001488    0.00003657
     atom   45 type  3   force =     0.00002795   -0.00001443   -0.00006302
     atom   46 type  3   force =     0.00006532   -0.00004845   -0.00013984
     atom   47 type  3   force =     0.00003277   -0.00001914   -0.00000492
     atom   48 type  3   force =    -0.00007962    0.00006135    0.00001273
     atom   49 type  3   force =     0.00004786   -0.00003536   -0.00010406
     atom   50 type  3   force =    -0.00003345    0.00001605    0.00000962
     atom   51 type  3   force =     0.00004476   -0.00002147   -0.00002920
     atom   52 type  3   force =    -0.00009504    0.00007789    0.00008174
     atom   53 type  3   force =     0.00005679   -0.00003976   -0.00003567
     atom   54 type  3   force =     0.00004432   -0.00004418    0.00007349
     atom   55 type  3   force =    -0.00001890    0.00001915   -0.00007940
     atom   56 type  3   force =     0.00012557   -0.00009313   -0.00002707
     atom   57 type  3   force =    -0.00006668    0.00005422    0.00009520
     atom   58 type  3   force =     0.00007911   -0.00004768   -0.00006367
     atom   59 type  3   force =    -0.00004087   -0.00005216    0.00006439
     atom   60 type  3   force =     0.00009786    0.00017035   -0.00018262
[...]
     atom  110 type  5   force =     0.00007237   -0.00021695   -0.00014898
     atom  111 type  5   force =     0.00010784   -0.00028007    0.00027517
     atom  112 type  5   force =    -0.00008068   -0.00019439   -0.00005567
     atom  113 type  5   force =     0.00030273    0.00020665    0.00026672
     atom  114 type  5   force =     0.00021318    0.00001018   -0.00003001
     atom  115 type  5   force =    -0.00034207   -0.00000603   -0.00024489
     atom  116 type  5   force =     0.00012358   -0.00012172    0.00006571
     atom  117 type  5   force =     0.00000706    0.00000677    0.00003849
     atom  118 type  5   force =    -0.00005836   -0.00000494    0.00025932
     atom  119 type  5   force =    -0.00000733   -0.00005947    0.00001564
     atom  120 type  5   force =    -0.00003863    0.00004349    0.00028078
     atom  121 type  5   force =    -0.00009854   -0.00000582    0.00003060
     atom  122 type  5   force =    -0.00016786    0.00003636   -0.00000819
     atom  123 type  5   force =    -0.00006994    0.00003021    0.00042612
     atom  124 type  5   force =    -0.00010310    0.00026748    0.00028067

     DFT-D3 dispersion contribution to forces:
     atom    1 type  1   force =     0.00059039    0.00033877   -0.00150965
     atom    2 type  1   force =     0.00013527    0.00057138    0.00151781
     atom    3 type  1   force =     0.00111821   -0.00000910    0.00034539
     atom    4 type  1   force =    -0.00032410    0.00101557   -0.00023882
     atom    5 type  1   force =     0.00057723    0.00049168    0.00159336
     atom    6 type  1   force =     0.00047771    0.00057783   -0.00169272
     atom    7 type  1   force =    -0.00037644    0.00092956    0.00031089
     atom    8 type  1   force =     0.00116737    0.00010641    0.00009675
     atom    9 type  4   force =    -0.00011072   -0.00064501    0.00026825
     atom   10 type  4   force =     0.00020564    0.00013894    0.00017556
     atom   11 type  4   force =    -0.00059205   -0.00039364   -0.00032139
     atom   12 type  4   force =    -0.00004546   -0.00018892   -0.00019134
     atom   13 type  4   force =    -0.00001862    0.00056442    0.00024969
     atom   14 type  4   force =     0.00056738    0.00022285   -0.00025226
     atom   15 type  4   force =    -0.00016994   -0.00013009    0.00017641
     atom   16 type  4   force =     0.00003776    0.00054665   -0.00023572
     atom   17 type  4   force =     0.00044878    0.00013922    0.00021603
     atom   18 type  4   force =     0.00036120    0.00020675   -0.00018599
     atom   19 type  4   force =    -0.00060508   -0.00048432    0.00033176
     atom   20 type  4   force =     0.00005332    0.00026181    0.00018169
     atom   21 type  4   force =     0.00022376   -0.00032424    0.00000777
     atom   22 type  4   force =    -0.00037544    0.00009644    0.00001215
     atom   23 type  4   force =    -0.00012987    0.00002339    0.00012473
     atom   24 type  4   force =     0.00014179   -0.00018239   -0.00027133
     atom   25 type  4   force =     0.00013046   -0.00027450    0.00036936
     atom   26 type  4   force =    -0.00019331   -0.00006302   -0.00031309
     atom   27 type  4   force =     0.00009562   -0.00015754    0.00025695
     atom   28 type  4   force =     0.00024205   -0.00018870   -0.00036091
     atom   29 type  4   force =    -0.00018856   -0.00070099    0.00040336
     atom   30 type  4   force =    -0.00004212   -0.00044652    0.00004924
     atom   31 type  4   force =     0.00014617    0.00008677   -0.00062411
     atom   32 type  4   force =    -0.00002344    0.00013441    0.00063199
     atom   33 type  4   force =    -0.00041684   -0.00024158   -0.00004226
     atom   34 type  4   force =    -0.00060845   -0.00053391   -0.00042238
     atom   35 type  4   force =    -0.00018191    0.00000195   -0.00020120
     atom   36 type  4   force =    -0.00047162    0.00008914   -0.00016494
     atom   37 type  4   force =    -0.00042763    0.00008051    0.00033392
     atom   38 type  4   force =    -0.00035335    0.00019478    0.00068712
     atom   39 type  4   force =    -0.00051627   -0.00072110    0.00014994
     atom   40 type  4   force =     0.00006115    0.00026557   -0.00016608
     atom   41 type  4   force =    -0.00052046   -0.00085547   -0.00023728
     atom   42 type  4   force =    -0.00022666   -0.00075746   -0.00028171
     atom   43 type  3   force =     0.00009584    0.00001989   -0.00019653
     atom   44 type  3   force =    -0.00002721    0.00008801    0.00006897
     atom   45 type  3   force =     0.00023531    0.00014396    0.00017747
     atom   46 type  3   force =    -0.00000304    0.00030366   -0.00019304
     atom   47 type  3   force =    -0.00015435    0.00002915   -0.00044931
     atom   48 type  3   force =     0.00007348   -0.00013077    0.00039063
     atom   49 type  3   force =    -0.00023158    0.00025168    0.00032626
     atom   50 type  3   force =     0.00027798   -0.00009864   -0.00029382
     atom   51 type  3   force =    -0.00015191    0.00001981   -0.00002845
     atom   52 type  3   force =     0.00011904   -0.00016756   -0.00007753
     atom   53 type  3   force =    -0.00008774    0.00003823    0.00038720
     atom   54 type  3   force =     0.00000569    0.00002838   -0.00043658
     atom   55 type  3   force =     0.00016713   -0.00011421   -0.00009148
     atom   56 type  3   force =    -0.00008697    0.00008454   -0.00002165
     atom   57 type  3   force =    -0.00010486   -0.00014447   -0.00030888
     atom   58 type  3   force =     0.00000678   -0.00020948    0.00035967
     atom   59 type  3   force =     0.00014438    0.00014896   -0.00018471
     atom   60 type  3   force =    -0.00063682   -0.00094485    0.00053697
[...]
     atom  110 type  5   force =    -0.00016151    0.00058373    0.00031610
     atom  111 type  5   force =     0.00006304    0.00058738   -0.00043167
     atom  112 type  5   force =    -0.00024988   -0.00073950    0.00024779
     atom  113 type  5   force =    -0.00054521   -0.00059568   -0.00030004
     atom  114 type  5   force =     0.00064397    0.00019222    0.00029704
     atom  115 type  5   force =     0.00061385    0.00007761    0.00032882
     atom  116 type  5   force =    -0.00012879    0.00057358   -0.00031751
     atom  117 type  5   force =    -0.00058015   -0.00060624    0.00033113
     atom  118 type  5   force =     0.00061115    0.00023445   -0.00029779
     atom  119 type  5   force =    -0.00002402    0.00070139    0.00026397
     atom  120 type  5   force =    -0.00032617   -0.00076066   -0.00037041
     atom  121 type  5   force =     0.00018064    0.00014594   -0.00005246
     atom  122 type  5   force =     0.00007867    0.00021784    0.00009765
     atom  123 type  5   force =     0.00012807    0.00010586   -0.00010991
     atom  124 type  5   force =     0.00006371    0.00010729    0.00005397

     Total force =     0.004819     Total SCF correction =     0.001933

     DFT-D3 dispersion Force =     0.007475
     SCF correction compared to forces is large: reduce conv_thr to get better values

     BFGS Geometry Optimization
     Energy error            =      0.0E+00 Ry
     Gradient error          =      8.7E-04 Ry/Bohr

     bfgs converged in   1 scf cycles and   0 bfgs steps
     (criteria: energy <  1.0E-04 Ry, force <  1.0E-03 Ry/Bohr)

     End of BFGS Geometry Optimization

     Final energy             =   -3259.6402538321 Ry
Begin final coordinates

ATOMIC_POSITIONS (angstrom)
Ti              -2.8674028313        2.1877697981       11.2218949684
Ti               7.8440014210        5.0858705665        1.8600544332
Ti               1.2209262845       -1.6933336221        9.3434342004
Ti               2.6982843219        7.4763577815        3.6885572884
Ti               1.7357051304        9.1185889284        1.7589367271
Ti               3.0381082343       -1.9968621795       11.3307486237
Ti              -1.9534796861        0.4852015267        9.3014686654
Ti               5.9231897539        5.4046393161        3.7529544835
H                3.6914817674        1.6166149000        8.6891179164
H               -0.2154156665       -4.2579906289        6.5070219483
H                4.6897903777       10.8066474964        4.6409365982
H               -2.1573316904        6.1215382602       11.0159006380
H                8.5287844280        1.1541495266        2.1636937046
H               -6.7822473839        1.3261647838       10.8693180524
H               11.2151778613        7.2264361754        2.0618946293
H                4.3016629349       -6.0367070317       10.9776579369
H               -2.4000005236        8.7029412796        2.0544112952
H                4.6606869689        3.0940270605        6.9062822507
H               -0.0604720384        3.6981358289        8.3775241220
H               -3.7198772390       -1.7639811361        6.3312796799
H                2.1948087465        7.4628208210       -0.1165150932
H                5.9959881613        4.8141944307        0.1301098538
H                3.7629254931       -2.4322448675        5.8333567557
H                0.9901352177        9.3506362172        7.2716867463
H               -5.8625851202        4.0978651031        8.9686803886
H               10.6623649486        3.0019213748        4.1613421500
H               -3.6931881316        2.4320447429        5.6454646189
H               -1.2271817349       11.2083937827        4.0856597337
H                1.9232908105       12.2171453120        2.5629545370
H                8.3280154294       -0.8627424576        3.3559899694
H                4.8118268579        7.1702971477        2.3860294365
H                0.1705742884        0.1838392156       10.5891500012
H                7.3778546041       -0.2329407125        9.7776248701
H                5.8683790444       -0.6860017937       10.5201207546
H                8.0971543760        4.7743452598        8.6406796248
H                7.4666217616        5.0285968768        7.0272393980
H                6.8511386683       -4.9591263086        9.5584247599
H                5.5538120075       -3.8748877212       10.0170958842
H                1.3434580889        1.9454113845        9.4114401332
H                0.9054700711        5.1781832863        6.5929320473
H                5.9566711719        8.8195658070        3.8805660564
H               -7.7557595204        8.8666839370        4.7354317825
C                8.5258512719        4.4273080221        4.7119046510
C               -3.7952184348        2.5515674961        8.3820290098
C                3.8336671718       -2.6482762275        8.4694239907
C                0.8405064964        9.5425984971        4.6047513682
C                9.4443823683        3.8595210313        5.7055852221
C               -4.6955925701        3.2114386893        7.4036738051
C                4.7964620487       -3.2353707183        7.5325683766
C               -0.0289178881       10.2194797507        5.5984035792
C                9.2509288407        4.0185203159        7.1146414302
C               -4.5168756734        3.0397850024        6.0148889055
C                5.8941119047       -4.0408597761        7.9901879061
C               -1.0815342178       11.0510145757        5.1526599566
C                0.1757676934       10.0047988758        6.9570108768
C                4.6086136342       -3.0443864180        6.1462956932
C               10.5438515654        3.1018923992        5.2399367356
C               -5.7518359424        3.9793542324        7.8903061849
C                2.8421707137        4.2256447624        6.6501890352
C                1.7623792922        2.5791717027        8.6309271358
[...]
O               -1.9856923786       -1.0003663391        7.9200279321
O                3.8539269659       -3.7901044220       11.9701376684
O                2.1192715045       10.9539420116        1.1085161291
O                4.6292806440       -0.9847468779       11.9698040382
O               -0.1843114536        9.1664944538        1.0792365775
O               -0.1264372629       -2.2633166121        7.9457068743
O                2.6898525574        6.0332708613        5.1153062819
O                9.3239498851        6.1348226526        1.1085448332
O               -4.7927727898        2.2087478048       11.9234435509
O                8.5482713605        3.3163652520        1.1278994054
O               -2.4380561742        3.9552270576       11.9686797159
O                4.4431196218        6.6173785071        3.0980941812
O               -0.2248448544       -0.3875409746        9.9067782702
O                6.8433987121        5.2901495041        0.0629907435
O                2.3032006078        8.4295485285       -0.0667490475
End final coordinates

     Writing all to output data dir ./tmp/MIL125_NH2_convtest.save/ :
     XML data file, charge density, pseudopotentials, collected wavefunctions

     General routines

     Parallel routines

     PAW routines

   This run was terminated on:  16:54:19  13Apr2025

   JOB DONE.
Note: The following floating-point exceptions are signalling: IEEE_DENORMAL
Note: The following floating-point exceptions are signalling: IEEE_DENORMAL
Note: The following floating-point exceptions are signalling: IEEE_DENORMAL